Li24 P4 S20 Cl4                         
   1.00000000000000     
    10.0236290992971000    0.0000000000000000    0.0000000000000000
     0.0000000000000000   10.0236290992971000    0.0000000000000000
     0.0000000000000000    0.0000000000000000   10.0236290992971000
   Li   P    S    Cl
    24     4    20     4
Direct
  0.9770957873601552  0.2501403117583089  0.2501269322369869
  0.9764794211398715  0.7503155830822287  0.7500974794139884
  0.0232368344715506  0.2498547863013231  0.7501891575516966
  0.0233625317822020  0.7502531476446189  0.2495991557225354
  0.2499793193585145  0.2498943894111532  0.9768361165594844
  0.2514445778835493  0.7485587597583793  0.0228855708112344
  0.7499028005171445  0.2502532397853748  0.0235037099996683
  0.7503310529498728  0.7503381744907421  0.9769481080166301
  0.2498143023956835  0.9767238702183565  0.2494647767681048
  0.2497538877317572  0.0232490722601713  0.7497538570279124
  0.7494648074719495  0.9767238702183565  0.7498142716918387
  0.7500363825048549  0.0232400719451298  0.2500363518010101
  0.2500975101178332  0.7503155830822287  0.4764793904360268
  0.2501891882555484  0.2498547863013231  0.5232368037677129
  0.7495991864263872  0.7502531476446189  0.5233625010783572
  0.7501269629408317  0.2501403117583089  0.4770957566563104
  0.2495463637049772  0.4767691008743737  0.7495463330011182
  0.2500313996001813  0.5231943897309527  0.2500123199108674
  0.7501165593606960  0.4767660662136710  0.2501165286568512
  0.7500123506147123  0.5231943897309527  0.7500313688963365
  0.4768361472633292  0.2498943894111532  0.7499792886546697
  0.4769481387204749  0.7503381744907421  0.2503310222460281
  0.5235037407035201  0.2502532397853748  0.2499027698132998
  0.5228883998150744  0.7485596151583825  0.7514489420797076
  0.4998565775981835  0.5000690603131495  0.4998860867292221
  0.4999785640641324  0.0002026050005466  0.9999785333602875
  0.9998861174330668  0.5000690603131495  0.9998565468943386
  0.9999255689079516  0.9999365633581815  0.4999255382041067
  0.1179700861983013  0.8817423443933862  0.6179700554944637
  0.1182148674635589  0.1179624755758416  0.3819039962018670
  0.8818323036857524  0.8817825779702991  0.3818322729819076
  0.8819040269057260  0.1179624755758416  0.6182148367597141
  0.8818515307134061  0.6180977753638065  0.1181255332865861
  0.8817507931893872  0.3818420345070396  0.8818929034680182
  0.1178496020482568  0.6182136466065417  0.8816240195876549
  0.1181414055192140  0.3820797775139083  0.1178999618499444
  0.6182337481187120  0.1183473393504874  0.8820397309231079
  0.6180336862148286  0.8820187278382696  0.1180336555109838
  0.3820397616269528  0.1183473393504874  0.1182337174148672
  0.3817713550051264  0.8823096928124156  0.8817713243012816
  0.6181255639904309  0.6180977753638065  0.3818515000095613
  0.6178999925537892  0.3820797775139083  0.6181413748153621
  0.3816240502914997  0.6182136466065417  0.6178495713444120
  0.3818929341718701  0.3818420345070396  0.3817507624855423
  0.7496918475788199  0.7499448931059475  0.7501672470208971
  0.7502682769518288  0.2500186768357553  0.2502682462479770
  0.2501672777247490  0.7499448931059475  0.2496918168749750
  0.2500474818356770  0.2500157224551667  0.7500474511318322
  0.0000902499273245  0.9999347171320530  0.9998629473277454
  0.0001150484818433  0.4999761944426188  0.5001150177779985
  0.4998629780315973  0.9999347171320530  0.5000902192234797
  0.5001766506773345  0.4999349848996001  0.0001766199734827
 
  0.00000000E+00  0.00000000E+00  0.00000000E+00
  0.00000000E+00  0.00000000E+00  0.00000000E+00
  0.00000000E+00  0.00000000E+00  0.00000000E+00
  0.00000000E+00  0.00000000E+00  0.00000000E+00
  0.00000000E+00  0.00000000E+00  0.00000000E+00
  0.00000000E+00  0.00000000E+00  0.00000000E+00
  0.00000000E+00  0.00000000E+00  0.00000000E+00
  0.00000000E+00  0.00000000E+00  0.00000000E+00
  0.00000000E+00  0.00000000E+00  0.00000000E+00
  0.00000000E+00  0.00000000E+00  0.00000000E+00
  0.00000000E+00  0.00000000E+00  0.00000000E+00
  0.00000000E+00  0.00000000E+00  0.00000000E+00
  0.00000000E+00  0.00000000E+00  0.00000000E+00
  0.00000000E+00  0.00000000E+00  0.00000000E+00
  0.00000000E+00  0.00000000E+00  0.00000000E+00
  0.00000000E+00  0.00000000E+00  0.00000000E+00
  0.00000000E+00  0.00000000E+00  0.00000000E+00
  0.00000000E+00  0.00000000E+00  0.00000000E+00
  0.00000000E+00  0.00000000E+00  0.00000000E+00
  0.00000000E+00  0.00000000E+00  0.00000000E+00
  0.00000000E+00  0.00000000E+00  0.00000000E+00
  0.00000000E+00  0.00000000E+00  0.00000000E+00
  0.00000000E+00  0.00000000E+00  0.00000000E+00
  0.00000000E+00  0.00000000E+00  0.00000000E+00
  0.00000000E+00  0.00000000E+00  0.00000000E+00
  0.00000000E+00  0.00000000E+00  0.00000000E+00
  0.00000000E+00  0.00000000E+00  0.00000000E+00
  0.00000000E+00  0.00000000E+00  0.00000000E+00
  0.00000000E+00  0.00000000E+00  0.00000000E+00
  0.00000000E+00  0.00000000E+00  0.00000000E+00
  0.00000000E+00  0.00000000E+00  0.00000000E+00
  0.00000000E+00  0.00000000E+00  0.00000000E+00
  0.00000000E+00  0.00000000E+00  0.00000000E+00
  0.00000000E+00  0.00000000E+00  0.00000000E+00
  0.00000000E+00  0.00000000E+00  0.00000000E+00
  0.00000000E+00  0.00000000E+00  0.00000000E+00
  0.00000000E+00  0.00000000E+00  0.00000000E+00
  0.00000000E+00  0.00000000E+00  0.00000000E+00
  0.00000000E+00  0.00000000E+00  0.00000000E+00
  0.00000000E+00  0.00000000E+00  0.00000000E+00
  0.00000000E+00  0.00000000E+00  0.00000000E+00
  0.00000000E+00  0.00000000E+00  0.00000000E+00
  0.00000000E+00  0.00000000E+00  0.00000000E+00
  0.00000000E+00  0.00000000E+00  0.00000000E+00
  0.00000000E+00  0.00000000E+00  0.00000000E+00
  0.00000000E+00  0.00000000E+00  0.00000000E+00
  0.00000000E+00  0.00000000E+00  0.00000000E+00
  0.00000000E+00  0.00000000E+00  0.00000000E+00
  0.00000000E+00  0.00000000E+00  0.00000000E+00
  0.00000000E+00  0.00000000E+00  0.00000000E+00
  0.00000000E+00  0.00000000E+00  0.00000000E+00
  0.00000000E+00  0.00000000E+00  0.00000000E+00
