Li24 P4 S20 Cl4
1.0
        9.6601285934         0.0000000000         0.0000000000
        0.0000000000         9.6601285934         0.0000000000
        0.0000000000         0.0000000000         9.6601285934
   Li    P    S   Cl
   24    4   20    4
Direct
     0.069430001         0.795029998         0.069399998
     0.307090014         0.028000001         0.692910016
     0.028000001         0.307090014         0.692910016
     0.991249979         0.710829973         0.710829973
     0.971469998         0.331180006         0.331180006
     0.692910016         0.692910016         0.972000003
     0.710829973         0.491250008         0.210830003
     0.692910016         0.807089984         0.527999997
     0.668820024         0.168819994         0.471469998
     0.289169997         0.789170027         0.491250008
     0.307090014         0.192910001         0.527999997
     0.807089984         0.028000001         0.192910001
     0.831179976         0.971469998         0.831179976
     0.210830003         0.991249979         0.210830003
     0.527999997         0.307090014         0.192910001
     0.471469998         0.331180006         0.831179976
     0.807089984         0.527999997         0.692910016
     0.168819994         0.528530002         0.331180006
     0.210830003         0.491250008         0.710829973
     0.527999997         0.807089984         0.692910016
     0.472000003         0.807089984         0.307090014
     0.192910001         0.192910001         0.972000003
     0.789170027         0.210830003         0.008750000
     0.331180006         0.668820024         0.028530000
     0.500228047         0.506667852         0.498751223
     0.507232964         0.993414462         0.006888600
     0.004553810         0.495983630         0.002155210
     0.004899700         0.001177050         0.509183407
     0.127354518         0.897842944         0.649844885
     0.124007121         0.140655667         0.400192976
     0.917438745         0.861993015         0.377877414
     0.858011246         0.108711392         0.619671762
     0.887847722         0.626381576         0.122519977
     0.886880040         0.380458832         0.868583143
     0.137059957         0.622371733         0.891079843
     0.116955101         0.374528050         0.134468257
     0.620965838         0.112012044         0.871915162
     0.641067982         0.876813412         0.123465180
     0.379201710         0.118031271         0.122724362
     0.382860273         0.859386444         0.898412108
     0.635869801         0.628466368         0.389905870
     0.606171787         0.364053696         0.616498649
     0.385015309         0.631099880         0.626753449
     0.370834768         0.400144577         0.368659168
     0.764259517         0.743319333         0.747367144
     0.742724776         0.246712103         0.251508027
     0.256918460         0.758855939         0.246943116
     0.258746535         0.253292918         0.755048215
     0.994624734         0.018148789         0.022211591
     0.015222540         0.492723882         0.532855272
     0.492106587         0.977220953         0.515244901
     0.531713486         0.490813673         0.019283479
