Li24 P4 S20 Cl4                         
   1.00000000000000     
     9.6464353595886170    0.0000000000000000    0.0000000000000000
     0.0000000000000000    9.6464353595886170    0.0000000000000000
     0.0000000000000000    0.0000000000000000    9.6464353595886170
   Li   P    S    Cl
    24     4    20     4
Direct
  0.9649601399474539  0.1988003535921906  0.1626238473692681
  0.9856343641592745  0.7050188107793640  0.6683154156425091
  0.0239189866355085  0.2185053884141993  0.7815489749574780
  0.0185751390693652  0.8086973269448304  0.1748323083970609
  0.3383581512191438  0.3270854762928274  0.9606862377812353
  0.3138078292049121  0.6686587033300124  0.0424844675404915
  0.6742932503414865  0.2850557253771466  0.0139135190949201
  0.7304887725521202  0.6850437630189000  0.9865760365432896
  0.2227740905156643  0.9893032471588543  0.1879890168895131
  0.2147045690139568  0.0243788399693136  0.8396635884184784
  0.8351700421042406  0.9557841631080503  0.8287573909828692
  0.7272949518220595  0.0200987514421146  0.3043190531522213
  0.3070130980153103  0.8275174410530007  0.4812095981480113
  0.2034641655979802  0.2871259874016072  0.5167112777215241
  0.6880328645071920  0.8285247285714011  0.5488644924872589
  0.8225923634394208  0.3139459105247560  0.4614398460837134
  0.1981101002736352  0.4780214222069306  0.7169067139360892
  0.1559177247609467  0.5446663036456234  0.3189193895122936
  0.6783340238665952  0.4783938248848463  0.2134795897658968
  0.7936071452705175  0.5073106340064008  0.6982343000929057
  0.4724705810289575  0.1602635807921867  0.6669854750062066
  0.4844890001082570  0.7882740820336203  0.2720987385788327
  0.5158258353439885  0.2018429362483538  0.3175894019757325
  0.5319013288227921  0.6730605467310483  0.7958942657047317
  0.4944232210583243  0.5026924671400478  0.4992887027721426
  0.5183990395491858  0.9913917624045839  0.9917919265140623
  0.0058742493089606  0.4962836317556969  0.0076860871926102
  0.0032790854753512  0.9998891775040926  0.5008880116348297
  0.1332642195274965  0.8979594836792647  0.6353157496387675
  0.1096040886854743  0.1248009413049232  0.3649230650084226
  0.8905204895603330  0.8560504085600696  0.3925432410563391
  0.8688427048214981  0.1156753367920497  0.6180430049652547
  0.8895841526505815  0.6020045659087303  0.1517192538942291
  0.8758204988808557  0.3740258685297935  0.8905977682979638
  0.1152909435884651  0.6335092509047031  0.8876379316722195
  0.1426679846492581  0.3774343622557866  0.1174575687031144
  0.6330081647833992  0.1037142951702621  0.8538257842009052
  0.6492986572637651  0.8789430744263222  0.1167483525538588
  0.4006966883644225  0.1295471651778378  0.1050352853741187
  0.3900455056302853  0.8588295250185608  0.8871806919392164
  0.6292846453911740  0.6304848982954024  0.3953565383323240
  0.6126294653853441  0.3654799484061267  0.6117159708694537
  0.3710646548979262  0.6256233531099495  0.6214718756200420
  0.3696598489329887  0.3958192535336517  0.3645726969885915
  0.7613340261022570  0.7361083146212759  0.7568120230905684
  0.7424326460688259  0.2498316736588552  0.2440315374173530
  0.2477660672137708  0.7616125425917016  0.2544345175356106
  0.2577416073910848  0.2470706307336697  0.7470831189687080
  0.0213101797075604  0.0084611350210575  0.0035167897000965
  0.0114663673985959  0.4830292539624341  0.5343895549384048
  0.5106574587344966  0.9923095979457366  0.4671032510765649
  0.5233815041578239  0.5101722023596755  0.0027967104617729
 
  0.00000000E+00  0.00000000E+00  0.00000000E+00
  0.00000000E+00  0.00000000E+00  0.00000000E+00
  0.00000000E+00  0.00000000E+00  0.00000000E+00
  0.00000000E+00  0.00000000E+00  0.00000000E+00
  0.00000000E+00  0.00000000E+00  0.00000000E+00
  0.00000000E+00  0.00000000E+00  0.00000000E+00
  0.00000000E+00  0.00000000E+00  0.00000000E+00
  0.00000000E+00  0.00000000E+00  0.00000000E+00
  0.00000000E+00  0.00000000E+00  0.00000000E+00
  0.00000000E+00  0.00000000E+00  0.00000000E+00
  0.00000000E+00  0.00000000E+00  0.00000000E+00
  0.00000000E+00  0.00000000E+00  0.00000000E+00
  0.00000000E+00  0.00000000E+00  0.00000000E+00
  0.00000000E+00  0.00000000E+00  0.00000000E+00
  0.00000000E+00  0.00000000E+00  0.00000000E+00
  0.00000000E+00  0.00000000E+00  0.00000000E+00
  0.00000000E+00  0.00000000E+00  0.00000000E+00
  0.00000000E+00  0.00000000E+00  0.00000000E+00
  0.00000000E+00  0.00000000E+00  0.00000000E+00
  0.00000000E+00  0.00000000E+00  0.00000000E+00
  0.00000000E+00  0.00000000E+00  0.00000000E+00
  0.00000000E+00  0.00000000E+00  0.00000000E+00
  0.00000000E+00  0.00000000E+00  0.00000000E+00
  0.00000000E+00  0.00000000E+00  0.00000000E+00
  0.00000000E+00  0.00000000E+00  0.00000000E+00
  0.00000000E+00  0.00000000E+00  0.00000000E+00
  0.00000000E+00  0.00000000E+00  0.00000000E+00
  0.00000000E+00  0.00000000E+00  0.00000000E+00
  0.00000000E+00  0.00000000E+00  0.00000000E+00
  0.00000000E+00  0.00000000E+00  0.00000000E+00
  0.00000000E+00  0.00000000E+00  0.00000000E+00
  0.00000000E+00  0.00000000E+00  0.00000000E+00
  0.00000000E+00  0.00000000E+00  0.00000000E+00
  0.00000000E+00  0.00000000E+00  0.00000000E+00
  0.00000000E+00  0.00000000E+00  0.00000000E+00
  0.00000000E+00  0.00000000E+00  0.00000000E+00
  0.00000000E+00  0.00000000E+00  0.00000000E+00
  0.00000000E+00  0.00000000E+00  0.00000000E+00
  0.00000000E+00  0.00000000E+00  0.00000000E+00
  0.00000000E+00  0.00000000E+00  0.00000000E+00
  0.00000000E+00  0.00000000E+00  0.00000000E+00
  0.00000000E+00  0.00000000E+00  0.00000000E+00
  0.00000000E+00  0.00000000E+00  0.00000000E+00
  0.00000000E+00  0.00000000E+00  0.00000000E+00
  0.00000000E+00  0.00000000E+00  0.00000000E+00
  0.00000000E+00  0.00000000E+00  0.00000000E+00
  0.00000000E+00  0.00000000E+00  0.00000000E+00
  0.00000000E+00  0.00000000E+00  0.00000000E+00
  0.00000000E+00  0.00000000E+00  0.00000000E+00
  0.00000000E+00  0.00000000E+00  0.00000000E+00
  0.00000000E+00  0.00000000E+00  0.00000000E+00
  0.00000000E+00  0.00000000E+00  0.00000000E+00
