Li24 P4 S20 Cl4                         
   1.00000000000000     
     9.6464353595886170    0.0000000000000000    0.0000000000000000
     0.0000000000000000    9.6464353595886170    0.0000000000000000
     0.0000000000000000    0.0000000000000000    9.6464353595886170
   Li   P    S    Cl
    24     4    20     4
Direct
  0.9649608741777485  0.1987991797917417  0.1626270058737944
  0.9856354477561382  0.7050139036706256  0.6683255632675653
  0.0239220816105004  0.2185013948934511  0.7815673386928808
  0.0185758683546879  0.8087026542992461  0.1748415543660826
  0.3383530722346393  0.3270849524055848  0.9606899929305968
  0.3138083897510384  0.6686646132978566  0.0424810002572826
  0.6742952036598666  0.2850557190422762  0.0139153457895915
  0.7304872480471474  0.6850497905608464  0.9865716183350344
  0.2227782318304037  0.9893039186729879  0.1879892804297327
  0.2147023371630397  0.0243710532088315  0.8396509919778978
  0.8351658197987319  0.9557854087624733  0.8287520760703586
  0.7272899714539633  0.0201014495586023  0.3043150414511047
  0.3070145345476618  0.8275148173192051  0.4812066579968217
  0.2034554665452788  0.2871182466525681  0.5167180454640175
  0.6880277549503901  0.8285156208529614  0.5488578071692274
  0.8225923402635971  0.3139439840809288  0.4614431366252560
  0.1981122000685644  0.4780167015090981  0.7169032025123698
  0.1559280014907358  0.5446653780940451  0.3189227325612691
  0.6783483518347850  0.4783963561412037  0.2134768554242328
  0.7936053391432765  0.5073106536660745  0.6982374324641896
  0.4724714280727085  0.1602679964339870  0.6669864592627377
  0.4844870875010159  0.7882729656450280  0.2720939954454735
  0.5158268720952108  0.2018448609447177  0.3175866506642251
  0.5319005690113769  0.6730622038656833  0.7958941650224745
  0.4944187070983190  0.5026870440071463  0.4992909563763774
  0.5183940359139285  0.9914073440209492  0.9917944746715435
  0.0058719275552477  0.4962866884853128  0.0076840260642754
  0.0032795426249521  0.9998913505707847  0.5008877196216872
  0.1332636225679309  0.8979509807996990  0.6353111652318546
  0.1096052784528183  0.1247982613261343  0.3649213866812602
  0.8905117161387821  0.8560549080328244  0.3925405995545859
  0.8688499564876793  0.1156808341855253  0.6180494503995391
  0.8895840382483016  0.6020143756390581  0.1517132207823266
  0.8758190208985468  0.3740267533321173  0.8905983213908613
  0.1152976482510937  0.6335047269188152  0.8876344809059162
  0.1426661447844211  0.3774337615850385  0.1174634561703911
  0.6330089017933958  0.1037160722829640  0.8538255717252383
  0.6492999250463569  0.8789412557148069  0.1167489391382333
  0.4006989576050586  0.1295469749388687  0.1050349527142771
  0.3900439796876256  0.8588283161829864  0.8871761695027800
  0.6292803348407148  0.6304845844111355  0.3953483318821611
  0.6126322678920957  0.3654806158809620  0.6117166256951307
  0.3710649316317713  0.6256242230721938  0.6214724247048693
  0.3696542716687858  0.3958115117789376  0.3645803936867082
  0.7613322213209770  0.7361096285919047  0.7568082841241690
  0.7424349673231276  0.2498334147448489  0.2440325644817207
  0.2477659757382114  0.7616123796743963  0.2544330634067435
  0.2577421613928266  0.2470667295448052  0.7470863193567681
  0.0213124979759272  0.0084633575190765  0.0035122700023607
  0.0114677222842658  0.4830274024096326  0.5343928623250207
  0.5106581881056371  0.9923081572626060  0.4670996939041245
  0.5233832481089777  0.5101765920162862  0.0027982816449352
 
  0.00000000E+00  0.00000000E+00  0.00000000E+00
  0.00000000E+00  0.00000000E+00  0.00000000E+00
  0.00000000E+00  0.00000000E+00  0.00000000E+00
  0.00000000E+00  0.00000000E+00  0.00000000E+00
  0.00000000E+00  0.00000000E+00  0.00000000E+00
  0.00000000E+00  0.00000000E+00  0.00000000E+00
  0.00000000E+00  0.00000000E+00  0.00000000E+00
  0.00000000E+00  0.00000000E+00  0.00000000E+00
  0.00000000E+00  0.00000000E+00  0.00000000E+00
  0.00000000E+00  0.00000000E+00  0.00000000E+00
  0.00000000E+00  0.00000000E+00  0.00000000E+00
  0.00000000E+00  0.00000000E+00  0.00000000E+00
  0.00000000E+00  0.00000000E+00  0.00000000E+00
  0.00000000E+00  0.00000000E+00  0.00000000E+00
  0.00000000E+00  0.00000000E+00  0.00000000E+00
  0.00000000E+00  0.00000000E+00  0.00000000E+00
  0.00000000E+00  0.00000000E+00  0.00000000E+00
  0.00000000E+00  0.00000000E+00  0.00000000E+00
  0.00000000E+00  0.00000000E+00  0.00000000E+00
  0.00000000E+00  0.00000000E+00  0.00000000E+00
  0.00000000E+00  0.00000000E+00  0.00000000E+00
  0.00000000E+00  0.00000000E+00  0.00000000E+00
  0.00000000E+00  0.00000000E+00  0.00000000E+00
  0.00000000E+00  0.00000000E+00  0.00000000E+00
  0.00000000E+00  0.00000000E+00  0.00000000E+00
  0.00000000E+00  0.00000000E+00  0.00000000E+00
  0.00000000E+00  0.00000000E+00  0.00000000E+00
  0.00000000E+00  0.00000000E+00  0.00000000E+00
  0.00000000E+00  0.00000000E+00  0.00000000E+00
  0.00000000E+00  0.00000000E+00  0.00000000E+00
  0.00000000E+00  0.00000000E+00  0.00000000E+00
  0.00000000E+00  0.00000000E+00  0.00000000E+00
  0.00000000E+00  0.00000000E+00  0.00000000E+00
  0.00000000E+00  0.00000000E+00  0.00000000E+00
  0.00000000E+00  0.00000000E+00  0.00000000E+00
  0.00000000E+00  0.00000000E+00  0.00000000E+00
  0.00000000E+00  0.00000000E+00  0.00000000E+00
  0.00000000E+00  0.00000000E+00  0.00000000E+00
  0.00000000E+00  0.00000000E+00  0.00000000E+00
  0.00000000E+00  0.00000000E+00  0.00000000E+00
  0.00000000E+00  0.00000000E+00  0.00000000E+00
  0.00000000E+00  0.00000000E+00  0.00000000E+00
  0.00000000E+00  0.00000000E+00  0.00000000E+00
  0.00000000E+00  0.00000000E+00  0.00000000E+00
  0.00000000E+00  0.00000000E+00  0.00000000E+00
  0.00000000E+00  0.00000000E+00  0.00000000E+00
  0.00000000E+00  0.00000000E+00  0.00000000E+00
  0.00000000E+00  0.00000000E+00  0.00000000E+00
  0.00000000E+00  0.00000000E+00  0.00000000E+00
  0.00000000E+00  0.00000000E+00  0.00000000E+00
  0.00000000E+00  0.00000000E+00  0.00000000E+00
  0.00000000E+00  0.00000000E+00  0.00000000E+00
