Li24 P4 S20 Cl4                         
   1.00000000000000     
     9.6508062552509166    0.0000000000000000    0.0000000000000000
     0.0000000000000000    9.6508062552509166    0.0000000000000000
     0.0000000000000000    0.0000000000000000    9.6508062552509166
   Li   P    S    Cl
    24     4    20     4
Direct
  0.9592521522121158  0.3444774652202983  0.3204207191669062
  0.9932330148025458  0.7173946842718040  0.7111758260820953
  0.0187510393704917  0.2918686270961473  0.7155564393028705
  0.0233139514868671  0.8278664614972546  0.2123666089553536
  0.1733594273128377  0.1654477450974430  0.9612303897087645
  0.2153953041113269  0.8290481479192707  0.0136611114864024
  0.8291812158845151  0.1892780781296661  0.0433005177750124
  0.8128322912368592  0.7705830852919161  0.9887056193065453
  0.3003851712581218  0.9856085971117035  0.3176623902971467
  0.3438938720448963  0.0290367825397959  0.6714876671394983
  0.8167520117950157  0.9731517149490934  0.7991545069479122
  0.7160507205505695  0.0186763011740871  0.2782611762701859
  0.1860357665427320  0.6843383163583623  0.4604704031616084
  0.2247973613732538  0.2763850049008513  0.5112517374215823
  0.6698761096623224  0.8137896722824660  0.5505530388316767
  0.6680699820845910  0.1986272965359007  0.4823865737487940
  0.2355875960409654  0.4814911264010432  0.7249712696511618
  0.3035966699081504  0.5380755899917785  0.1598068290235508
  0.6974786733704214  0.4836195840240610  0.1784581757361613
  0.7983532901966952  0.5183072448276048  0.6717352923353319
  0.4673457082141863  0.3055034208896199  0.8430038555233941
  0.4821395138883252  0.7728741609867813  0.3000853359378909
  0.5142203605742146  0.2834772867149219  0.1863728060706860
  0.5407787061945949  0.6631482080901778  0.8313467855786723
  0.5019792628108812  0.5013863708343422  0.5010095277959653
  0.5083296778000054  0.9894909074679592  0.9935813352469069
  0.0080960178248939  0.4955671928459557  0.0081406127587579
  0.9963811619527850  0.0036228003432323  0.4997124206773584
  0.1361977197043494  0.8904288822771066  0.6134998997612970
  0.1010561808021244  0.1268989301212705  0.3614285684894770
  0.8709795566367275  0.8662220581954897  0.3972432017745756
  0.8702173381107394  0.1262546395267213  0.6193719301501512
  0.9026902504545491  0.6134646332404190  0.1510554918589383
  0.8711722147763791  0.3863242221802893  0.8876200371108840
  0.1342724699673189  0.6234150972164183  0.8928011616320136
  0.1250195605181901  0.3588628005027363  0.1197541307695234
  0.6357515141070359  0.1216512309109367  0.8876464051761770
  0.6240916929526366  0.8612141402489976  0.1183387862667741
  0.3696251506340796  0.1051208112291508  0.1075783516353368
  0.3983182155740456  0.8706117713801538  0.8571939251582668
  0.6467518111513184  0.6125705808311116  0.3926382671274317
  0.6024015872419457  0.3730823191969101  0.6380492413851748
  0.3873708820177105  0.6395148458291914  0.6150161282902835
  0.3767850262536905  0.3939749122129129  0.3664028670584931
  0.7617529540898214  0.7417254687944008  0.7595734152382208
  0.7412507759785558  0.2547723308152056  0.2575634649663918
  0.2516119698608703  0.7606009238415190  0.2430343564642208
  0.2517625662978785  0.2440649967979879  0.7455584443739320
  0.9893357193375003  0.9798256533741448  0.0008781887912361
  0.0256022595548925  0.4912900698805244  0.5433267553639921
  0.5079115701852599  0.9939031026534383  0.4691055065643543
  0.5030783343872373  0.4850225385493371  0.0158280356544402
 
  0.00000000E+00  0.00000000E+00  0.00000000E+00
  0.00000000E+00  0.00000000E+00  0.00000000E+00
  0.00000000E+00  0.00000000E+00  0.00000000E+00
  0.00000000E+00  0.00000000E+00  0.00000000E+00
  0.00000000E+00  0.00000000E+00  0.00000000E+00
  0.00000000E+00  0.00000000E+00  0.00000000E+00
  0.00000000E+00  0.00000000E+00  0.00000000E+00
  0.00000000E+00  0.00000000E+00  0.00000000E+00
  0.00000000E+00  0.00000000E+00  0.00000000E+00
  0.00000000E+00  0.00000000E+00  0.00000000E+00
  0.00000000E+00  0.00000000E+00  0.00000000E+00
  0.00000000E+00  0.00000000E+00  0.00000000E+00
  0.00000000E+00  0.00000000E+00  0.00000000E+00
  0.00000000E+00  0.00000000E+00  0.00000000E+00
  0.00000000E+00  0.00000000E+00  0.00000000E+00
  0.00000000E+00  0.00000000E+00  0.00000000E+00
  0.00000000E+00  0.00000000E+00  0.00000000E+00
  0.00000000E+00  0.00000000E+00  0.00000000E+00
  0.00000000E+00  0.00000000E+00  0.00000000E+00
  0.00000000E+00  0.00000000E+00  0.00000000E+00
  0.00000000E+00  0.00000000E+00  0.00000000E+00
  0.00000000E+00  0.00000000E+00  0.00000000E+00
  0.00000000E+00  0.00000000E+00  0.00000000E+00
  0.00000000E+00  0.00000000E+00  0.00000000E+00
  0.00000000E+00  0.00000000E+00  0.00000000E+00
  0.00000000E+00  0.00000000E+00  0.00000000E+00
  0.00000000E+00  0.00000000E+00  0.00000000E+00
  0.00000000E+00  0.00000000E+00  0.00000000E+00
  0.00000000E+00  0.00000000E+00  0.00000000E+00
  0.00000000E+00  0.00000000E+00  0.00000000E+00
  0.00000000E+00  0.00000000E+00  0.00000000E+00
  0.00000000E+00  0.00000000E+00  0.00000000E+00
  0.00000000E+00  0.00000000E+00  0.00000000E+00
  0.00000000E+00  0.00000000E+00  0.00000000E+00
  0.00000000E+00  0.00000000E+00  0.00000000E+00
  0.00000000E+00  0.00000000E+00  0.00000000E+00
  0.00000000E+00  0.00000000E+00  0.00000000E+00
  0.00000000E+00  0.00000000E+00  0.00000000E+00
  0.00000000E+00  0.00000000E+00  0.00000000E+00
  0.00000000E+00  0.00000000E+00  0.00000000E+00
  0.00000000E+00  0.00000000E+00  0.00000000E+00
  0.00000000E+00  0.00000000E+00  0.00000000E+00
  0.00000000E+00  0.00000000E+00  0.00000000E+00
  0.00000000E+00  0.00000000E+00  0.00000000E+00
  0.00000000E+00  0.00000000E+00  0.00000000E+00
  0.00000000E+00  0.00000000E+00  0.00000000E+00
  0.00000000E+00  0.00000000E+00  0.00000000E+00
  0.00000000E+00  0.00000000E+00  0.00000000E+00
  0.00000000E+00  0.00000000E+00  0.00000000E+00
  0.00000000E+00  0.00000000E+00  0.00000000E+00
  0.00000000E+00  0.00000000E+00  0.00000000E+00
  0.00000000E+00  0.00000000E+00  0.00000000E+00
