Li24 P4 S20 Cl4                         
   1.00000000000000     
     9.6508062552509166    0.0000000000000000    0.0000000000000000
     0.0000000000000000    9.6508062552509166    0.0000000000000000
     0.0000000000000000    0.0000000000000000    9.6508062552509166
   Li   P    S    Cl
    24     4    20     4
Direct
  0.9592509727162479  0.3444767165687708  0.3204213031706544
  0.9932338247445074  0.7173957116282281  0.7111787686720774
  0.0187509268015091  0.2918672484175744  0.7155557274371489
  0.0233137766836151  0.8278605791042679  0.2123663671064406
  0.1733585653506751  0.1654496549391453  0.9612307621872986
  0.2153973626368284  0.8290515050524050  0.0136634387770300
  0.8291808662774116  0.1892807931750582  0.0432983976257617
  0.8128316974184600  0.7705829981852617  0.9887053885428614
  0.3003840232234722  0.9856093000972308  0.3176629065205745
  0.3438925705359495  0.0290376436644593  0.6714856188103653
  0.8167534510082959  0.9731519410741427  0.7991550301573156
  0.7160580186528236  0.0186757949915304  0.2782534423319589
  0.1860362560922226  0.6843376387022886  0.4604721458461754
  0.2247939272215405  0.2763916117969103  0.5112526408336251
  0.6698782053974384  0.8137921707879840  0.5505525507658149
  0.6680675758009400  0.1986244904891450  0.4823839340445133
  0.2355893183111419  0.4814909334782982  0.7249776112030304
  0.3035976226209272  0.5380758810290942  0.1598076059072753
  0.6974755587581001  0.4836200924552827  0.1784604707912720
  0.7983541003033068  0.5183078912202745  0.6717324841341892
  0.4673477243005948  0.3055033046890827  0.8430013082813659
  0.4821391624507143  0.7728782005712418  0.3000893323653528
  0.5142199466661452  0.2834753841634878  0.1863701662148074
  0.5407797036462156  0.6631488599343314  0.8313470897215680
  0.5019803326145720  0.5013775450986628  0.5010085763550123
  0.5083317877558287  0.9894893401324367  0.9935855360248169
  0.0080930627067701  0.4955712160726904  0.0081385045719955
  0.9963843415235019  0.0036243962880036  0.4997141740563364
  0.1361962388640805  0.8904293474903895  0.6135001262830784
  0.1010572053052030  0.1269002142698454  0.3614306893412547
  0.8709786854495647  0.8662204337345685  0.3972403803000617
  0.8702158583113118  0.1262545693755186  0.6193714942117978
  0.9026875879462750  0.6134632260108646  0.1510539542401190
  0.8711738089676828  0.3863253894173582  0.8876180556115472
  0.1342717119547672  0.6234165673303593  0.8928038967686120
  0.1250217990279268  0.3588607422712116  0.1197572890133998
  0.6357526398397013  0.1216519381679504  0.8876455649092705
  0.6240883297558284  0.8612140215027324  0.1183367636414658
  0.3696238273319921  0.1051194200364236  0.1075779302125994
  0.3983160535232386  0.8706103042412963  0.8571900907277410
  0.6467526251755729  0.6125735538620418  0.3926377447785612
  0.6024028204974528  0.3730827639804630  0.6380453724711117
  0.3873675017227640  0.6395153646701104  0.6150200637969334
  0.3767881016984589  0.3939746130121904  0.3664038619227057
  0.7617541463199231  0.7417261160735649  0.7595728770748167
  0.7412496247232170  0.2547716735385777  0.2575614430623148
  0.2516125028711045  0.7606008144759571  0.2430365076674548
  0.2517619938952578  0.2440662582390658  0.7455583419743945
  0.9893323685677302  0.9798255687418589  0.0008809710117887
  0.0256053985313542  0.4912873200131358  0.5433295916981322
  0.5079105740523460  0.9939002792146852  0.4691032011572318
  0.5030772645475281  0.4850194901224540  0.0158280386667471
 
  0.00000000E+00  0.00000000E+00  0.00000000E+00
  0.00000000E+00  0.00000000E+00  0.00000000E+00
  0.00000000E+00  0.00000000E+00  0.00000000E+00
  0.00000000E+00  0.00000000E+00  0.00000000E+00
  0.00000000E+00  0.00000000E+00  0.00000000E+00
  0.00000000E+00  0.00000000E+00  0.00000000E+00
  0.00000000E+00  0.00000000E+00  0.00000000E+00
  0.00000000E+00  0.00000000E+00  0.00000000E+00
  0.00000000E+00  0.00000000E+00  0.00000000E+00
  0.00000000E+00  0.00000000E+00  0.00000000E+00
  0.00000000E+00  0.00000000E+00  0.00000000E+00
  0.00000000E+00  0.00000000E+00  0.00000000E+00
  0.00000000E+00  0.00000000E+00  0.00000000E+00
  0.00000000E+00  0.00000000E+00  0.00000000E+00
  0.00000000E+00  0.00000000E+00  0.00000000E+00
  0.00000000E+00  0.00000000E+00  0.00000000E+00
  0.00000000E+00  0.00000000E+00  0.00000000E+00
  0.00000000E+00  0.00000000E+00  0.00000000E+00
  0.00000000E+00  0.00000000E+00  0.00000000E+00
  0.00000000E+00  0.00000000E+00  0.00000000E+00
  0.00000000E+00  0.00000000E+00  0.00000000E+00
  0.00000000E+00  0.00000000E+00  0.00000000E+00
  0.00000000E+00  0.00000000E+00  0.00000000E+00
  0.00000000E+00  0.00000000E+00  0.00000000E+00
  0.00000000E+00  0.00000000E+00  0.00000000E+00
  0.00000000E+00  0.00000000E+00  0.00000000E+00
  0.00000000E+00  0.00000000E+00  0.00000000E+00
  0.00000000E+00  0.00000000E+00  0.00000000E+00
  0.00000000E+00  0.00000000E+00  0.00000000E+00
  0.00000000E+00  0.00000000E+00  0.00000000E+00
  0.00000000E+00  0.00000000E+00  0.00000000E+00
  0.00000000E+00  0.00000000E+00  0.00000000E+00
  0.00000000E+00  0.00000000E+00  0.00000000E+00
  0.00000000E+00  0.00000000E+00  0.00000000E+00
  0.00000000E+00  0.00000000E+00  0.00000000E+00
  0.00000000E+00  0.00000000E+00  0.00000000E+00
  0.00000000E+00  0.00000000E+00  0.00000000E+00
  0.00000000E+00  0.00000000E+00  0.00000000E+00
  0.00000000E+00  0.00000000E+00  0.00000000E+00
  0.00000000E+00  0.00000000E+00  0.00000000E+00
  0.00000000E+00  0.00000000E+00  0.00000000E+00
  0.00000000E+00  0.00000000E+00  0.00000000E+00
  0.00000000E+00  0.00000000E+00  0.00000000E+00
  0.00000000E+00  0.00000000E+00  0.00000000E+00
  0.00000000E+00  0.00000000E+00  0.00000000E+00
  0.00000000E+00  0.00000000E+00  0.00000000E+00
  0.00000000E+00  0.00000000E+00  0.00000000E+00
  0.00000000E+00  0.00000000E+00  0.00000000E+00
  0.00000000E+00  0.00000000E+00  0.00000000E+00
  0.00000000E+00  0.00000000E+00  0.00000000E+00
  0.00000000E+00  0.00000000E+00  0.00000000E+00
  0.00000000E+00  0.00000000E+00  0.00000000E+00
