Li24 P4 S20 Cl4                         
   1.00000000000000     
     9.6545041478164286    0.0000000000000000    0.0000000000000000
     0.0000000000000000    9.6545041478164286    0.0000000000000000
     0.0000000000000000    0.0000000000000000    9.6545041478164286
   Li   P    S    Cl
    24     4    20     4
Direct
  0.9890758465914335  0.2212984516499610  0.1754762846917176
  0.9545023271622540  0.6914633241197768  0.6667893588103985
  0.0247985844727590  0.2133217264884324  0.7813409401789233
  0.0114234883983898  0.7102926348878121  0.3246877073488731
  0.2299610578038928  0.1245806212636164  0.9491538842056179
  0.1449545233222813  0.8104125569009588  0.0388607324238339
  0.6727042053819732  0.2992769305596022  0.0237550577851691
  0.7044371637493041  0.7238368308409356  0.9773331764684688
  0.2957789316666141  0.9821924622984721  0.2808146424990274
  0.4836488797002104  0.1862063968517238  0.7129986775758592
  0.8384930759216330  0.9643528794392169  0.8065205551924665
  0.7979309368593528  0.0276585387690881  0.1703195548461976
  0.2933928689950063  0.7926630987226014  0.4896695339944764
  0.2793962394519802  0.1899168502544789  0.5329492500562647
  0.6793890716181501  0.8390841718806541  0.5168685313934349
  0.8381364153598020  0.3286465610933338  0.4647060214840459
  0.1786773698327729  0.4692331473530150  0.6547072089296841
  0.1954814395290571  0.5155449688580799  0.3052814028592167
  0.7247170857614078  0.4915557254267846  0.2189192955183417
  0.6842688513101189  0.5260828052121370  0.7831206852417777
  0.3156987387914744  0.4501595779558048  0.9093091067892559
  0.4543789724676953  0.6775738122816738  0.1893462780454965
  0.5532850464246984  0.1895620115465791  0.3395367031168795
  0.5023725742181859  0.8120866429029440  0.7331996122445880
  0.5001000333967653  0.4986061491635054  0.5041782243851644
  0.4976997090576798  0.0036164594185887  0.0134225449731933
  0.0023615544723309  0.5088573769025024  0.9878628323854748
  0.9921013878274194  0.0077248169663059  0.4946368603565079
  0.1075440702773051  0.8898506055263149  0.6258065477904581
  0.1149706360285293  0.1296845237761128  0.3696697549986931
  0.8646859367707287  0.8929046148725184  0.3687238284609644
  0.8657504871119229  0.1296087739025079  0.6149566094943988
  0.8928345175897082  0.6415513733745442  0.1141542421672148
  0.8716420501467752  0.3851790540745449  0.8761121697001477
  0.1195483595123172  0.6286862345687451  0.8563194988262492
  0.1425887470351457  0.3913584573968487  0.0973360073630031
  0.6363543151086808  0.1013570636830733  0.8838736403355535
  0.6056216776510226  0.8753284853778422  0.1432991643981868
  0.3999766115248422  0.1513872996910779  0.1309599239244352
  0.3508951997150409  0.9011022299110905  0.9005760689786046
  0.6119475794900489  0.6327337071700706  0.3836369238348422
  0.6288587867133639  0.3665060814627282  0.6092559996858746
  0.3812507223180180  0.6140874180953021  0.6397226507133825
  0.3774298731803676  0.3742950372629039  0.3836671587149552
  0.7348012418775223  0.7569950449295902  0.7421354723083559
  0.7630317057368528  0.2584179728570683  0.2432872633723433
  0.2382660324270233  0.7507262863001298  0.2586313315948509
  0.2577209438411767  0.2653512035568055  0.7563048535813189
  0.0000735135165779  0.0283452354493235  0.9979641733662040
  0.0071138647377658  0.5173932315403038  0.4850536301340066
  0.4672560873870070  0.0012467743080028  0.5100991683216892
  0.5413126507573718  0.5174995509038667  0.0052389841337465
 
  0.00000000E+00  0.00000000E+00  0.00000000E+00
  0.00000000E+00  0.00000000E+00  0.00000000E+00
  0.00000000E+00  0.00000000E+00  0.00000000E+00
  0.00000000E+00  0.00000000E+00  0.00000000E+00
  0.00000000E+00  0.00000000E+00  0.00000000E+00
  0.00000000E+00  0.00000000E+00  0.00000000E+00
  0.00000000E+00  0.00000000E+00  0.00000000E+00
  0.00000000E+00  0.00000000E+00  0.00000000E+00
  0.00000000E+00  0.00000000E+00  0.00000000E+00
  0.00000000E+00  0.00000000E+00  0.00000000E+00
  0.00000000E+00  0.00000000E+00  0.00000000E+00
  0.00000000E+00  0.00000000E+00  0.00000000E+00
  0.00000000E+00  0.00000000E+00  0.00000000E+00
  0.00000000E+00  0.00000000E+00  0.00000000E+00
  0.00000000E+00  0.00000000E+00  0.00000000E+00
  0.00000000E+00  0.00000000E+00  0.00000000E+00
  0.00000000E+00  0.00000000E+00  0.00000000E+00
  0.00000000E+00  0.00000000E+00  0.00000000E+00
  0.00000000E+00  0.00000000E+00  0.00000000E+00
  0.00000000E+00  0.00000000E+00  0.00000000E+00
  0.00000000E+00  0.00000000E+00  0.00000000E+00
  0.00000000E+00  0.00000000E+00  0.00000000E+00
  0.00000000E+00  0.00000000E+00  0.00000000E+00
  0.00000000E+00  0.00000000E+00  0.00000000E+00
  0.00000000E+00  0.00000000E+00  0.00000000E+00
  0.00000000E+00  0.00000000E+00  0.00000000E+00
  0.00000000E+00  0.00000000E+00  0.00000000E+00
  0.00000000E+00  0.00000000E+00  0.00000000E+00
  0.00000000E+00  0.00000000E+00  0.00000000E+00
  0.00000000E+00  0.00000000E+00  0.00000000E+00
  0.00000000E+00  0.00000000E+00  0.00000000E+00
  0.00000000E+00  0.00000000E+00  0.00000000E+00
  0.00000000E+00  0.00000000E+00  0.00000000E+00
  0.00000000E+00  0.00000000E+00  0.00000000E+00
  0.00000000E+00  0.00000000E+00  0.00000000E+00
  0.00000000E+00  0.00000000E+00  0.00000000E+00
  0.00000000E+00  0.00000000E+00  0.00000000E+00
  0.00000000E+00  0.00000000E+00  0.00000000E+00
  0.00000000E+00  0.00000000E+00  0.00000000E+00
  0.00000000E+00  0.00000000E+00  0.00000000E+00
  0.00000000E+00  0.00000000E+00  0.00000000E+00
  0.00000000E+00  0.00000000E+00  0.00000000E+00
  0.00000000E+00  0.00000000E+00  0.00000000E+00
  0.00000000E+00  0.00000000E+00  0.00000000E+00
  0.00000000E+00  0.00000000E+00  0.00000000E+00
  0.00000000E+00  0.00000000E+00  0.00000000E+00
  0.00000000E+00  0.00000000E+00  0.00000000E+00
  0.00000000E+00  0.00000000E+00  0.00000000E+00
  0.00000000E+00  0.00000000E+00  0.00000000E+00
  0.00000000E+00  0.00000000E+00  0.00000000E+00
  0.00000000E+00  0.00000000E+00  0.00000000E+00
  0.00000000E+00  0.00000000E+00  0.00000000E+00
