Li24 P4 S20 Cl4                         
   1.00000000000000     
     9.6545041478164286    0.0000000000000000    0.0000000000000000
     0.0000000000000000    9.6545041478164286    0.0000000000000000
     0.0000000000000000    0.0000000000000000    9.6545041478164286
   Li   P    S    Cl
    24     4    20     4
Direct
  0.9890745163869923  0.2213004216913390  0.1754774243994888
  0.9545055489102268  0.6914669618648688  0.6667908679154095
  0.0248001415655850  0.2133172512343577  0.7813389337002192
  0.0114252367725030  0.7102938462367234  0.3246867345844748
  0.2299602240976952  0.1245836743341826  0.9491541866311266
  0.1449610103503289  0.8104155024354824  0.0388555131000885
  0.6727165479148027  0.2992789322167155  0.0237515186647528
  0.7044439529199309  0.7238359992283563  0.9773326088901797
  0.2957741269630318  0.9821933188901966  0.2808131667043767
  0.4836478187053928  0.1862072014301290  0.7129948857997306
  0.8384847609439703  0.9643578010872531  0.8065227666565846
  0.7979326427047866  0.0276581661284254  0.1703253172489667
  0.2933953051596063  0.7926660493815376  0.4896663608546632
  0.2793936147375575  0.1899154937560965  0.5329496663277595
  0.6793842557807395  0.8390861400043974  0.5168703268625805
  0.8381350148215319  0.3286480964390108  0.4647069957699443
  0.1786729912835625  0.4692339969396144  0.6547103241264054
  0.1954839735782841  0.5155460449406135  0.3052818318682995
  0.7247112597536827  0.4915543886584004  0.2189206698241506
  0.6842763935087959  0.5260830246313972  0.7831190516452082
  0.3157005502877439  0.4501582107278068  0.9093093907721865
  0.4543809844715199  0.6775786231444698  0.1893427162653154
  0.5532822266677471  0.1895601264779430  0.3395321387789068
  0.5023720850691618  0.8120682823540548  0.7332093900092929
  0.5001010172439138  0.4986077249944216  0.5041846021388281
  0.4976987170351777  0.0036140295899330  0.0134198878465455
  0.0023583395390361  0.5088514530837145  0.9878674601025139
  0.9921058572203805  0.0077185552533621  0.4946477650157775
  0.1075407776852515  0.8898578890406270  0.6257977730021338
  0.1149703987942630  0.1296869304635280  0.3696667085496017
  0.8646834603446720  0.8928996765621449  0.3687261952586951
  0.8657502575498057  0.1296087489901154  0.6149566117850824
  0.8928309501691487  0.6415458317510883  0.1141611963050906
  0.8716474927781874  0.3851780861998009  0.8761119239840625
  0.1195419599481156  0.6286783905130946  0.8563315857118994
  0.1425929469835268  0.3913523357827913  0.0973416691458411
  0.6363500173711856  0.1013639152745256  0.8838725085291941
  0.6056255690726857  0.8753294756751444  0.1432916219789888
  0.3999736356455585  0.1513854727690145  0.1309604300052385
  0.3508991004641686  0.9011084019014106  0.9005731872745955
  0.6119454204313612  0.6327358325236787  0.3836346630953642
  0.6288567513814840  0.3665107090687414  0.6092561769794500
  0.3812466742132443  0.6140834965834046  0.6397150180898663
  0.3774279584206681  0.3742923318590528  0.3836651835222540
  0.7348032080888203  0.7569962059733584  0.7421368660003154
  0.7630304096180538  0.2584182377781374  0.2432870111657195
  0.2382664377340120  0.7507263419974564  0.2586293851956043
  0.2577200796547388  0.2653517955007061  0.7563033338683738
  0.0000721100306222  0.0283479272257807  0.9979642264689801
  0.0071149275272262  0.5173970024014594  0.4850535058643501
  0.4672534254078613  0.0012503612291894  0.5100933536618228
  0.5413189062914086  0.5174990757808473  0.0052370920535338
 
  0.00000000E+00  0.00000000E+00  0.00000000E+00
  0.00000000E+00  0.00000000E+00  0.00000000E+00
  0.00000000E+00  0.00000000E+00  0.00000000E+00
  0.00000000E+00  0.00000000E+00  0.00000000E+00
  0.00000000E+00  0.00000000E+00  0.00000000E+00
  0.00000000E+00  0.00000000E+00  0.00000000E+00
  0.00000000E+00  0.00000000E+00  0.00000000E+00
  0.00000000E+00  0.00000000E+00  0.00000000E+00
  0.00000000E+00  0.00000000E+00  0.00000000E+00
  0.00000000E+00  0.00000000E+00  0.00000000E+00
  0.00000000E+00  0.00000000E+00  0.00000000E+00
  0.00000000E+00  0.00000000E+00  0.00000000E+00
  0.00000000E+00  0.00000000E+00  0.00000000E+00
  0.00000000E+00  0.00000000E+00  0.00000000E+00
  0.00000000E+00  0.00000000E+00  0.00000000E+00
  0.00000000E+00  0.00000000E+00  0.00000000E+00
  0.00000000E+00  0.00000000E+00  0.00000000E+00
  0.00000000E+00  0.00000000E+00  0.00000000E+00
  0.00000000E+00  0.00000000E+00  0.00000000E+00
  0.00000000E+00  0.00000000E+00  0.00000000E+00
  0.00000000E+00  0.00000000E+00  0.00000000E+00
  0.00000000E+00  0.00000000E+00  0.00000000E+00
  0.00000000E+00  0.00000000E+00  0.00000000E+00
  0.00000000E+00  0.00000000E+00  0.00000000E+00
  0.00000000E+00  0.00000000E+00  0.00000000E+00
  0.00000000E+00  0.00000000E+00  0.00000000E+00
  0.00000000E+00  0.00000000E+00  0.00000000E+00
  0.00000000E+00  0.00000000E+00  0.00000000E+00
  0.00000000E+00  0.00000000E+00  0.00000000E+00
  0.00000000E+00  0.00000000E+00  0.00000000E+00
  0.00000000E+00  0.00000000E+00  0.00000000E+00
  0.00000000E+00  0.00000000E+00  0.00000000E+00
  0.00000000E+00  0.00000000E+00  0.00000000E+00
  0.00000000E+00  0.00000000E+00  0.00000000E+00
  0.00000000E+00  0.00000000E+00  0.00000000E+00
  0.00000000E+00  0.00000000E+00  0.00000000E+00
  0.00000000E+00  0.00000000E+00  0.00000000E+00
  0.00000000E+00  0.00000000E+00  0.00000000E+00
  0.00000000E+00  0.00000000E+00  0.00000000E+00
  0.00000000E+00  0.00000000E+00  0.00000000E+00
  0.00000000E+00  0.00000000E+00  0.00000000E+00
  0.00000000E+00  0.00000000E+00  0.00000000E+00
  0.00000000E+00  0.00000000E+00  0.00000000E+00
  0.00000000E+00  0.00000000E+00  0.00000000E+00
  0.00000000E+00  0.00000000E+00  0.00000000E+00
  0.00000000E+00  0.00000000E+00  0.00000000E+00
  0.00000000E+00  0.00000000E+00  0.00000000E+00
  0.00000000E+00  0.00000000E+00  0.00000000E+00
  0.00000000E+00  0.00000000E+00  0.00000000E+00
  0.00000000E+00  0.00000000E+00  0.00000000E+00
  0.00000000E+00  0.00000000E+00  0.00000000E+00
  0.00000000E+00  0.00000000E+00  0.00000000E+00
