Generated by IonExplorer 2.0
1.0
       10.2794980000        0.0000000000        0.0000000000
        0.0000000000       10.2794980000        0.0000000000
        0.0000000000        0.0000000000       10.2794980000
   Li    P    S   Cl
   29    4   20    4
Direct
    0.7731100000    0.0000000000    0.0000000000
    0.7268900000    0.5000000000    0.0000000000
    0.7268900000    0.0000000000    0.5000000000
    0.0000000000    0.5000000000    0.2731100000
    0.0000000000    0.0000000000    0.2268900000
    0.5000000000    0.5000000000    0.2268900000
    0.5000000000    0.0000000000    0.2731100000
    0.0000000000    0.2731100000    0.5000000000
    0.0000000000    0.2268900000    0.0000000000
    0.5000000000    0.2731100000    0.0000000000
    0.5000000000    0.2268900000    0.5000000000
    0.0000000000    0.0000000000    0.7731100000
    0.0000000000    0.5000000000    0.7268900000
    0.5000000000    0.0000000000    0.7268900000
    0.5000000000    0.5000000000    0.7731100000
    0.0000000000    0.7731100000    0.0000000000
    0.0000000000    0.7268900000    0.5000000000
    0.5000000000    0.7731100000    0.5000000000
    0.5000000000    0.7268900000    0.0000000000
    0.2731100000    0.5000000000    0.0000000000
    0.2731100000    0.0000000000    0.5000000000
    0.2268900000    0.0000000000    0.0000000000
    0.7674242519    0.5034945582    0.4965054418
    0.7558549200    0.5776646100    0.5776646100
    0.5578233400    0.5459950500    0.5459950500
    0.5000000000    0.5000000000    0.5000000000
    0.4421766600    0.5459950500    0.4540049500
    0.2441450800    0.5776646100    0.4223353900
    0.2348243100    0.5000000000    0.5000000000
    0.2500000000    0.7500000000    0.7500000000
    0.2500000000    0.2500000000    0.2500000000
    0.7500000000    0.7500000000    0.2500000000
    0.7500000000    0.2500000000    0.7500000000
    0.3655200000    0.8655200000    0.8655200000
    0.3655200000    0.6344800000    0.6344800000
    0.1344800000    0.8655200000    0.6344800000
    0.1344800000    0.6344800000    0.8655200000
    0.3655200000    0.3655200000    0.3655200000
    0.3655200000    0.1344800000    0.1344800000
    0.1344800000    0.3655200000    0.1344800000
    0.1344800000    0.1344800000    0.3655200000
    0.8655200000    0.8655200000    0.3655200000
    0.8655200000    0.6344800000    0.1344800000
    0.6344800000    0.8655200000    0.1344800000
    0.6344800000    0.6344800000    0.3655200000
    0.8655200000    0.3655200000    0.8655200000
    0.8655200000    0.1344800000    0.6344800000
    0.6344800000    0.3655200000    0.6344800000
    0.6344800000    0.1344800000    0.8655200000
    0.0000000000    0.5000000000    0.5000000000
    0.0000000000    0.0000000000    0.0000000000
    0.5000000000    0.5000000000    0.0000000000
    0.5000000000    0.0000000000    0.5000000000
    0.7500000000    0.2500000000    0.2500000000
    0.7500000000    0.7500000000    0.7500000000
    0.2500000000    0.2500000000    0.7500000000
    0.2500000000    0.7500000000    0.2500000000
