Li24 P4 S20 Cl4                         
   1.00000000000000     
     9.6837536627305809    0.0000000000000000    0.0000000000000000
     0.0000000000000000    9.6837536627305809    0.0000000000000000
     0.0000000000000000    0.0000000000000000    9.6837536627305809
   Li   P    S    Cl
    24     4    20     4
Direct
  0.9840039559288086  0.2252702614598027  0.2745953324555993
  0.9775534983980276  0.7524745695447899  0.7473910243706121
  0.0239653447973574  0.2964266810738355  0.6828839946103141
  0.0239653447973574  0.8169815993050665  0.2034389128415593
  0.2705800994583461  0.2842251426773324  0.9890354558947443
  0.2242876438589535  0.8050880688243470  0.0152925367905185
  0.8310009402249778  0.1899349722304845  0.0264288477795031
  0.8121257470499987  0.8423007441447143  0.9641540391831244
  0.3354156898161010  0.9522095997953397  0.3248032790607217
  0.1851838041617728  0.0336922131742412  0.8172529662614260
  0.6619983647575430  0.9737865625992012  0.7171184939162254
  0.7048770203306967  0.0134638402362757  0.2955245034466190
  0.1851838041617728  0.6826126276539405  0.4661733807411396
  0.3354156898161010  0.1750623148546590  0.5476559941200339
  0.6619983647575359  0.7827470999991624  0.5260790313161866
  0.7048770203306967  0.2043410904687616  0.4864017536790978
  0.2242876438589535  0.4845730571248693  0.6947775250910265
  0.2705800994583461  0.5108301380206364  0.2156404512380625
  0.8310009402249778  0.4734367461358777  0.3099306216849033
  0.8121257470499916  0.5357115547322563  0.6575648497706663
  0.4791006653574290  0.3208930388960343  0.8111832454127231
  0.4791006653574290  0.6886823485026646  0.1789725550193607
  0.5358573293476993  0.3071122364456693  0.1927533574697184
  0.6792309759720969  0.5791065507206590  0.9207590431947501
  0.4987898057407045  0.4992213653912078  0.4944997640559731
  0.4987898057407045  0.0053658298594146  0.0006442285241942
  0.9924521535830684  0.5055163979369146  0.9943491959784732
  0.0061562761350882  0.9876221688267277  0.5122434250886601
  0.1408973702646644  0.8723148125732147  0.6275507813421730
  0.1404064593190620  0.1044103310988434  0.3954552628165444
  0.8811317356922150  0.8629677107258439  0.3944444548380710
  0.8811317356922150  0.1054211390772954  0.6368978831895439
  0.8670689998989204  0.6314562240513210  0.1101429451748503
  0.8670689998989204  0.3897226487405374  0.8684093698640668
  0.1304965927000250  0.6181201406388493  0.8817454532765242
  0.0966079347445698  0.3743062070593193  0.1255593868560613
  0.6276500106842660  0.1378927055122334  0.8949745531660804
  0.6221633939513495  0.8747415953827291  0.1165300455246841
  0.3765973129637083  0.1155798641763015  0.1344127930395050
  0.3913959359206083  0.8922099094965639  0.8615028511290204
  0.6276500106842660  0.6048910407493073  0.3619728884031614
  0.6221633939513495  0.3833355483906895  0.6251239985326515
  0.3913959359206083  0.6383627427863674  0.6076556844188097
  0.3765973129637083  0.3654528008758898  0.3842857297390792
  0.7438674598104239  0.7468102684273220  0.7530553254880658
  0.7571962866017644  0.2443785971605001  0.2554869967548805
  0.2517556333726034  0.7433274209662469  0.2430520024170246
  0.2517556333726034  0.2568135914983560  0.7565381729491408
  0.0115298011140062  0.9794680401761849  0.0053401367847508
  0.0115298011140204  0.4945254571306513  0.5203975537392028
  0.5346694281512906  0.0071257206985146  0.4927398732168660
  0.4719907588404155  0.4790581037718982  0.0208074901434683
 
  0.00000000E+00  0.00000000E+00  0.00000000E+00
  0.00000000E+00  0.00000000E+00  0.00000000E+00
  0.00000000E+00  0.00000000E+00  0.00000000E+00
  0.00000000E+00  0.00000000E+00  0.00000000E+00
  0.00000000E+00  0.00000000E+00  0.00000000E+00
  0.00000000E+00  0.00000000E+00  0.00000000E+00
  0.00000000E+00  0.00000000E+00  0.00000000E+00
  0.00000000E+00  0.00000000E+00  0.00000000E+00
  0.00000000E+00  0.00000000E+00  0.00000000E+00
  0.00000000E+00  0.00000000E+00  0.00000000E+00
  0.00000000E+00  0.00000000E+00  0.00000000E+00
  0.00000000E+00  0.00000000E+00  0.00000000E+00
  0.00000000E+00  0.00000000E+00  0.00000000E+00
  0.00000000E+00  0.00000000E+00  0.00000000E+00
  0.00000000E+00  0.00000000E+00  0.00000000E+00
  0.00000000E+00  0.00000000E+00  0.00000000E+00
  0.00000000E+00  0.00000000E+00  0.00000000E+00
  0.00000000E+00  0.00000000E+00  0.00000000E+00
  0.00000000E+00  0.00000000E+00  0.00000000E+00
  0.00000000E+00  0.00000000E+00  0.00000000E+00
  0.00000000E+00  0.00000000E+00  0.00000000E+00
  0.00000000E+00  0.00000000E+00  0.00000000E+00
  0.00000000E+00  0.00000000E+00  0.00000000E+00
  0.00000000E+00  0.00000000E+00  0.00000000E+00
  0.00000000E+00  0.00000000E+00  0.00000000E+00
  0.00000000E+00  0.00000000E+00  0.00000000E+00
  0.00000000E+00  0.00000000E+00  0.00000000E+00
  0.00000000E+00  0.00000000E+00  0.00000000E+00
  0.00000000E+00  0.00000000E+00  0.00000000E+00
  0.00000000E+00  0.00000000E+00  0.00000000E+00
  0.00000000E+00  0.00000000E+00  0.00000000E+00
  0.00000000E+00  0.00000000E+00  0.00000000E+00
  0.00000000E+00  0.00000000E+00  0.00000000E+00
  0.00000000E+00  0.00000000E+00  0.00000000E+00
  0.00000000E+00  0.00000000E+00  0.00000000E+00
  0.00000000E+00  0.00000000E+00  0.00000000E+00
  0.00000000E+00  0.00000000E+00  0.00000000E+00
  0.00000000E+00  0.00000000E+00  0.00000000E+00
  0.00000000E+00  0.00000000E+00  0.00000000E+00
  0.00000000E+00  0.00000000E+00  0.00000000E+00
  0.00000000E+00  0.00000000E+00  0.00000000E+00
  0.00000000E+00  0.00000000E+00  0.00000000E+00
  0.00000000E+00  0.00000000E+00  0.00000000E+00
  0.00000000E+00  0.00000000E+00  0.00000000E+00
  0.00000000E+00  0.00000000E+00  0.00000000E+00
  0.00000000E+00  0.00000000E+00  0.00000000E+00
  0.00000000E+00  0.00000000E+00  0.00000000E+00
  0.00000000E+00  0.00000000E+00  0.00000000E+00
  0.00000000E+00  0.00000000E+00  0.00000000E+00
  0.00000000E+00  0.00000000E+00  0.00000000E+00
  0.00000000E+00  0.00000000E+00  0.00000000E+00
  0.00000000E+00  0.00000000E+00  0.00000000E+00
