Li24 P4 S20 Cl4                         
   1.00000000000000     
    10.0287435591572063    0.0000000000000000    0.0000000000000000
     0.0000000000000000   10.0287435591572063    0.0000000000000000
     0.0000000000000000    0.0000000000000000   10.0287435591572063
   Li   P    S    Cl
    24     4    20     4
Direct
  0.9772564021773879  0.2500304611752978  0.2500304611752978
  0.9767924357110432  0.7500362090419341  0.7500362090419341
  0.0230603651084958  0.2500847505019642  0.7499863833259260
  0.0230603651084958  0.7499863833259260  0.2500847505019642
  0.2499666837518887  0.2501722831008036  0.9765703287413960
  0.2499784376077574  0.7500517072970755  0.0232919732512745
  0.7502290880551544  0.2498613854753262  0.0232781166331478
  0.7499619497790868  0.7500393688585907  0.9768116937754895
  0.2499666837518887  0.9765703287413960  0.2501722831008036
  0.2499784376077574  0.0232919732512674  0.7500517072970755
  0.7499619497790868  0.9768116937754895  0.7500393688585907
  0.7502290880551544  0.0232781166331478  0.2498613854753262
  0.2499399893546092  0.7500841564380590  0.4767913277959029
  0.2500839200233025  0.2502437463288570  0.5232818846480298
  0.7499613047419328  0.7500799706202524  0.5233167706158122
  0.7498583315787921  0.2499522382164974  0.4766667123671304
  0.2499399893546092  0.4767913277959029  0.7500841564380590
  0.2500839200233025  0.5232818846480298  0.2502437463288570
  0.7498583315787921  0.4766667123671304  0.2499522382164974
  0.7499613047419328  0.5233167706158122  0.7500799706202524
  0.4768991807510952  0.2500901144274624  0.7500436800248257
  0.4768991807510952  0.7500436800248257  0.2500901144274624
  0.5231047670884800  0.2495508642606436  0.2495508642606436
  0.5230995356151732  0.7498287939673146  0.7498287939673146
  0.5000191413930524  0.4999386990250332  0.4999386990250332
  0.4998745803931633  0.9998926790887325  0.9998926790887325
  0.0000070462726785  0.5000900588957506  0.0000242601583235
  0.0000070462726785  0.0000242601583235  0.5000900588957506
  0.1180317049802735  0.8819630203493708  0.6181855701141633
  0.1183283704362231  0.1179645529517777  0.3821790797962568
  0.8818913913280769  0.8820310985107276  0.3820391424322604
  0.8818254126544315  0.1181177048268358  0.6180229154357747
  0.8818254126544315  0.6180229154357747  0.1181177048268358
  0.8818913913280769  0.3820391424322604  0.8820310985107276
  0.1180317049802735  0.6181855701141633  0.8819630203493708
  0.1183283704362231  0.3821790797962568  0.1179645529517777
  0.6180326112550556  0.1180664099281377  0.8820439988557761
  0.6180326112550556  0.8820439988557761  0.1180664099281377
  0.3814317838669672  0.1177666207335416  0.1177666207335345
  0.3819411342393249  0.8817705073032477  0.8817705073032477
  0.6181644009162230  0.6180478001057976  0.3820040925470174
  0.6181644009162230  0.3820040925470174  0.6180478001057976
  0.3817734760569048  0.6179081245104191  0.6179081245104191
  0.3821460944099996  0.3817928649410865  0.3817928649410865
  0.7499533212388770  0.7500568701562964  0.7500568701562964
  0.7501715194482144  0.2499674190319829  0.2499674190319829
  0.2499800999050100  0.7499418115732501  0.2500467813503395
  0.2499800999050100  0.2500467813503395  0.7499418115732501
 -0.0000042525001097  0.0000593823124437  0.0000593823124437
  0.0002051009310644  0.5000433762443411  0.5000433762443411
  0.4999171914651415  0.9999321720819339  0.4999580658503825
  0.4999171914651415  0.4999580658503825  0.9999321720819339
 
  0.00000000E+00  0.00000000E+00  0.00000000E+00
  0.00000000E+00  0.00000000E+00  0.00000000E+00
  0.00000000E+00  0.00000000E+00  0.00000000E+00
  0.00000000E+00  0.00000000E+00  0.00000000E+00
  0.00000000E+00  0.00000000E+00  0.00000000E+00
  0.00000000E+00  0.00000000E+00  0.00000000E+00
  0.00000000E+00  0.00000000E+00  0.00000000E+00
  0.00000000E+00  0.00000000E+00  0.00000000E+00
  0.00000000E+00  0.00000000E+00  0.00000000E+00
  0.00000000E+00  0.00000000E+00  0.00000000E+00
  0.00000000E+00  0.00000000E+00  0.00000000E+00
  0.00000000E+00  0.00000000E+00  0.00000000E+00
  0.00000000E+00  0.00000000E+00  0.00000000E+00
  0.00000000E+00  0.00000000E+00  0.00000000E+00
  0.00000000E+00  0.00000000E+00  0.00000000E+00
  0.00000000E+00  0.00000000E+00  0.00000000E+00
  0.00000000E+00  0.00000000E+00  0.00000000E+00
  0.00000000E+00  0.00000000E+00  0.00000000E+00
  0.00000000E+00  0.00000000E+00  0.00000000E+00
  0.00000000E+00  0.00000000E+00  0.00000000E+00
  0.00000000E+00  0.00000000E+00  0.00000000E+00
  0.00000000E+00  0.00000000E+00  0.00000000E+00
  0.00000000E+00  0.00000000E+00  0.00000000E+00
  0.00000000E+00  0.00000000E+00  0.00000000E+00
  0.00000000E+00  0.00000000E+00  0.00000000E+00
  0.00000000E+00  0.00000000E+00  0.00000000E+00
  0.00000000E+00  0.00000000E+00  0.00000000E+00
  0.00000000E+00  0.00000000E+00  0.00000000E+00
  0.00000000E+00  0.00000000E+00  0.00000000E+00
  0.00000000E+00  0.00000000E+00  0.00000000E+00
  0.00000000E+00  0.00000000E+00  0.00000000E+00
  0.00000000E+00  0.00000000E+00  0.00000000E+00
  0.00000000E+00  0.00000000E+00  0.00000000E+00
  0.00000000E+00  0.00000000E+00  0.00000000E+00
  0.00000000E+00  0.00000000E+00  0.00000000E+00
  0.00000000E+00  0.00000000E+00  0.00000000E+00
  0.00000000E+00  0.00000000E+00  0.00000000E+00
  0.00000000E+00  0.00000000E+00  0.00000000E+00
  0.00000000E+00  0.00000000E+00  0.00000000E+00
  0.00000000E+00  0.00000000E+00  0.00000000E+00
  0.00000000E+00  0.00000000E+00  0.00000000E+00
  0.00000000E+00  0.00000000E+00  0.00000000E+00
  0.00000000E+00  0.00000000E+00  0.00000000E+00
  0.00000000E+00  0.00000000E+00  0.00000000E+00
  0.00000000E+00  0.00000000E+00  0.00000000E+00
  0.00000000E+00  0.00000000E+00  0.00000000E+00
  0.00000000E+00  0.00000000E+00  0.00000000E+00
  0.00000000E+00  0.00000000E+00  0.00000000E+00
  0.00000000E+00  0.00000000E+00  0.00000000E+00
  0.00000000E+00  0.00000000E+00  0.00000000E+00
  0.00000000E+00  0.00000000E+00  0.00000000E+00
  0.00000000E+00  0.00000000E+00  0.00000000E+00
