Li24 P4 S20 Cl4
1.0
  10.0287435591572063    0.0000000000000000    0.0000000000000000
   0.0000000000000000   10.0287435591572063    0.0000000000000000
   0.0000000000000000    0.0000000000000000   10.0287435591572063
Li P S Cl
24 4 20 4
direct
  0.9773091143993471  0.2500293477483422  0.2500293477483422
  0.9768153337708808  0.7500374944000058  0.7500374944000060
  0.0230333260197970  0.2500830349060937  0.7499921154007100
  0.0230333260197970  0.7499921154007099  0.2500830349060940
  0.2499614048352605  0.2501706440192960  0.9765499186972647
  0.2499767669552495  0.7500513399759778  0.0233018634493513
  0.7502250418559429  0.2498737593582701  0.0232928231833908
  0.7499641965683905  0.7500391498274515  0.9768058690113592
  0.2499614048352605  0.9765499186972646  0.2501706440192962
  0.2499767669552495  0.0233018634493511  0.7500513399759782
  0.7499641965683905  0.9768058690113590  0.7500391498274517
  0.7502250418559429  0.0232928231833908  0.2498737593582702
  0.2499421828373074  0.7500821154975448  0.4767842220817150
  0.2500935884789122  0.2502447645987098  0.5232999647085088
  0.7499628142521357  0.7500772314960276  0.5233264477451315
  0.7498608856420311  0.2499598635806350  0.4766547120421789
  0.2499421828373074  0.4767842220817149  0.7500821154975448
  0.2500935884789122  0.5232999647085087  0.2502447645987099
  0.7498608856420311  0.4766547120421789  0.2499598635806353
  0.7499628142521357  0.5233264477451314  0.7500772314960277
  0.4769255331157894  0.2500862019637913  0.7500414749060876
  0.4769255331157894  0.7500414749060876  0.2500862019637914
  0.5230725653404206  0.2495320798452330  0.2495320798452330
  0.5230811958499717  0.7498284596577494  0.7498284596577496
  0.5000183325476818  0.4999520865349115  0.4999520865349115
  0.4998703759550926  0.9998976519499385  0.9998976519499386
  0.0000106441523058  0.5001081005309812  0.0000361913834796
  0.0000106441523058  0.0000361913834795  0.5001081005309814
  0.1180558051723300  0.8819548204782697  0.6181925378081454
  0.1183769475305747  0.1179552369442579  0.3821912639098565
  0.8818563996072328  0.8820256942540947  0.3820315036543172
  0.8817954467912271  0.1181235096970417  0.6180228142140195
  0.8817954467912271  0.6180228142140192  0.1181235096970417
  0.8818563996072328  0.3820315036543172  0.8820256942540948
  0.1180558051723300  0.6181925378081453  0.8819548204782696
  0.1183769475305747  0.3821912639098564  0.1179552369442580
  0.6180585694043249  0.1180666065606822  0.8820458980609933
  0.6180585694043249  0.8820458980609933  0.1180666065606824
  0.3813758702161051  0.1177465930354966  0.1177465930354896
  0.3819036921837080  0.8817448840688280  0.8817448840688281
  0.6181888597087160  0.6180468534123940  0.3820018539339644
  0.6181888597087160  0.3820018539339644  0.6180468534123942
  0.3817447041642862  0.6179128912894896  0.6179128912894897
  0.3821082884654591  0.3817808846582083  0.3817808846582085
  0.7499528271110608  0.7500583581231368  0.7500583581231369
  0.7501809468403244  0.2499683547384212  0.2499683547384212
  0.2499784604820235  0.7499410328107434  0.2500483120052395
  0.2499784604820235  0.2500483120052395  0.7499410328107436
  0.0000071690735319  0.0000550311657567  0.0000550311657568
  0.0001916933763465  0.5000438888933965  0.5000438888933967
  0.4999170719433388  0.9999390583577528  0.4999631894253601
  0.4999170719433388  0.4999631894253600  0.9999390583577530
