Li24 P4 S20 Cl4                         
   1.00000000000000     
     9.6593030851370756    0.0000000000000000    0.0000000000000000
     0.0000000000000000    9.6593030851370756    0.0000000000000000
     0.0000000000000000    0.0000000000000000    9.6593030851370756
   Li   P    S    Cl
    24     4    20     4
Direct
  0.9660453628146826  0.3283357107695650  0.3304813014408978
  0.9912988721779570  0.7866434653993650  0.8083298925180245
  0.0284619898666207  0.2009681537458832  0.8209068359058378
  0.0208739393168287  0.6999387372369412  0.2826151887605519
  0.3127667619900265  0.3245078147573608  0.9671530785677049
  0.3134918741060062  0.6948027773642593  0.0138375802605140
  0.6759252098648290  0.3137294650939566  0.0238653494280925
  0.6658682631594672  0.6886192967243048  0.9561029702416732
  0.1710492659982066  0.9668338795471598  0.1690749661674573
  0.2184075138161461  0.0100428405768511  0.8104431772753031
  0.8007555635314105  0.9783535987181011  0.7903431312240770
  0.8236267685456440  0.0452091130649563  0.1628343955313767
  0.2206632666297779  0.6975252252426429  0.4759463335554983
  0.2897770467362619  0.1575418886435429  0.5258279825035643
  0.8100102227030206  0.7141123849899813  0.5122448703657554
  0.7072330098825503  0.1841797735985722  0.4748262016654436
  0.1860915107534922  0.4520747460368497  0.6653724524806819
  0.3136970342058731  0.5196749906314082  0.2196457139344901
  0.6993041674177505  0.4930094504580538  0.2271047197663236
  0.8304214431939343  0.5198905269743150  0.6979080493398087
  0.4864768836474269  0.2105186398853576  0.7099826385838170
  0.4637803406445755  0.8432257170669644  0.3140556514079123
  0.5122713821584881  0.2009424026900533  0.2860904729039788
  0.5434309607580374  0.8151973716243006  0.6575119376946716
  0.5013450765833767  0.5005858631580722  0.5135172690729704
  0.5061971372131282  0.9967892163951220  0.9978279961320951
  0.9997179280509414  0.4969134763995982  0.0025385814762799
  0.0056468228489379  0.0045015077541137  0.4913716614051822
  0.1314719026980455  0.8818107828234147  0.6118113058429202
  0.1178332716555630  0.1261202096076346  0.3586007652369858
  0.8775525121642289  0.8916407384055489  0.3646547313720063
  0.8939246723560643  0.1322381947226958  0.6195519316074183
  0.8716993376795514  0.6314047762488570  0.1063542378066842
  0.8729061260730546  0.3729656955009162  0.8857382548552124
  0.1321338952396758  0.5991953134327730  0.8705438716033953
  0.1197407440268989  0.3799165265800966  0.1321082239659574
  0.6309710801286528  0.1238525160182817  0.8817285834829249
  0.6284438411810171  0.8817069746061819  0.1260889270936261
  0.3677823227004140  0.1151819929349642  0.1074012281588708
  0.4042972251786594  0.8652638480906418  0.8655464780981319
  0.6047623529398436  0.6417356142259081  0.3907020278130418
  0.6392905287784032  0.3805644029895277  0.6198778394978248
  0.3813337616097670  0.6151094455220445  0.6448239067750947
  0.3708189015546566  0.3735709024540981  0.4022027848545022
  0.7626020390963504  0.7488190364011515  0.7423545313917614
  0.7436139078041819  0.2591657833580996  0.2491369034301343
  0.2513903895406528  0.7502791348383084  0.2425176232876396
  0.2543135118132653  0.2379675685932270  0.7505432322769963
  0.0075206415312437  0.9919766189976400  0.9647859195206649
  0.0007841216375297  0.5332599290410016  0.4917933993801782
  0.5047466431476977  0.0275871354068187  0.4972308430203896
  0.4962387536498127  0.4988233729522094  0.0346633762177220
 
  0.00000000E+00  0.00000000E+00  0.00000000E+00
  0.00000000E+00  0.00000000E+00  0.00000000E+00
  0.00000000E+00  0.00000000E+00  0.00000000E+00
  0.00000000E+00  0.00000000E+00  0.00000000E+00
  0.00000000E+00  0.00000000E+00  0.00000000E+00
  0.00000000E+00  0.00000000E+00  0.00000000E+00
  0.00000000E+00  0.00000000E+00  0.00000000E+00
  0.00000000E+00  0.00000000E+00  0.00000000E+00
  0.00000000E+00  0.00000000E+00  0.00000000E+00
  0.00000000E+00  0.00000000E+00  0.00000000E+00
  0.00000000E+00  0.00000000E+00  0.00000000E+00
  0.00000000E+00  0.00000000E+00  0.00000000E+00
  0.00000000E+00  0.00000000E+00  0.00000000E+00
  0.00000000E+00  0.00000000E+00  0.00000000E+00
  0.00000000E+00  0.00000000E+00  0.00000000E+00
  0.00000000E+00  0.00000000E+00  0.00000000E+00
  0.00000000E+00  0.00000000E+00  0.00000000E+00
  0.00000000E+00  0.00000000E+00  0.00000000E+00
  0.00000000E+00  0.00000000E+00  0.00000000E+00
  0.00000000E+00  0.00000000E+00  0.00000000E+00
  0.00000000E+00  0.00000000E+00  0.00000000E+00
  0.00000000E+00  0.00000000E+00  0.00000000E+00
  0.00000000E+00  0.00000000E+00  0.00000000E+00
  0.00000000E+00  0.00000000E+00  0.00000000E+00
  0.00000000E+00  0.00000000E+00  0.00000000E+00
  0.00000000E+00  0.00000000E+00  0.00000000E+00
  0.00000000E+00  0.00000000E+00  0.00000000E+00
  0.00000000E+00  0.00000000E+00  0.00000000E+00
  0.00000000E+00  0.00000000E+00  0.00000000E+00
  0.00000000E+00  0.00000000E+00  0.00000000E+00
  0.00000000E+00  0.00000000E+00  0.00000000E+00
  0.00000000E+00  0.00000000E+00  0.00000000E+00
  0.00000000E+00  0.00000000E+00  0.00000000E+00
  0.00000000E+00  0.00000000E+00  0.00000000E+00
  0.00000000E+00  0.00000000E+00  0.00000000E+00
  0.00000000E+00  0.00000000E+00  0.00000000E+00
  0.00000000E+00  0.00000000E+00  0.00000000E+00
  0.00000000E+00  0.00000000E+00  0.00000000E+00
  0.00000000E+00  0.00000000E+00  0.00000000E+00
  0.00000000E+00  0.00000000E+00  0.00000000E+00
  0.00000000E+00  0.00000000E+00  0.00000000E+00
  0.00000000E+00  0.00000000E+00  0.00000000E+00
  0.00000000E+00  0.00000000E+00  0.00000000E+00
  0.00000000E+00  0.00000000E+00  0.00000000E+00
  0.00000000E+00  0.00000000E+00  0.00000000E+00
  0.00000000E+00  0.00000000E+00  0.00000000E+00
  0.00000000E+00  0.00000000E+00  0.00000000E+00
  0.00000000E+00  0.00000000E+00  0.00000000E+00
  0.00000000E+00  0.00000000E+00  0.00000000E+00
  0.00000000E+00  0.00000000E+00  0.00000000E+00
  0.00000000E+00  0.00000000E+00  0.00000000E+00
  0.00000000E+00  0.00000000E+00  0.00000000E+00
