Li24 P4 S20 Cl4                         
   1.00000000000000     
     9.6946854437408234    0.0000000000000000    0.0000000000000000
     0.0000000000000000    9.6946854437408234    0.0000000000000000
     0.0000000000000000    0.0000000000000000    9.6946854437408234
   Li   P    S    Cl
    24     4    20     4
Direct
  0.9775775668532125  0.2731115075898226  0.2270228984947968
  0.9666914101739430  0.7442750888346087  0.7558593172500107
  0.0182757949451220  0.2007557777623255  0.8110396602708011
  0.0182757949451220  0.6890947458138111  0.2993786283222867
  0.3319824548237706  0.3202940954626305  0.9562101774722997
  0.1715031505561965  0.8164631324874586  0.0370184786984920
  0.6981682491209306  0.2917906603308292  0.0182753387792404
  0.6714964016876515  0.7098823789111375  0.9840419578759544
  0.2658209834853057  0.9844140431841034  0.2936798413620482
  0.2099999886329262  0.0152023134671123  0.8057360564546150
  0.7997631519355567  0.9677368527165732  0.8169905131977215
  0.8243664005012711  0.0248654520133432  0.1838692859668101
  0.2099999886329262  0.6943983496299972  0.4849320926174928
  0.2658209834853057  0.2064545647225783  0.5157203629005088
  0.7997631519355567  0.6831438928868978  0.5323975533680391
  0.8243664005012711  0.3162651201177951  0.4752689540712832
  0.1715031505561965  0.4631159273861417  0.6836712735971536
  0.3319824548237706  0.5439242286123196  0.1798403106219887
  0.6981682491209306  0.4818590673053789  0.2083437457537831
  0.6714964016876515  0.5160924482086579  0.7902520271734748
  0.4742800801320554  0.1758047218904980  0.6890844889866388
  0.4742800801320554  0.8110499170979806  0.3243296841941142
  0.5324234033178128  0.1833753911368678  0.3167590149477515
  0.5151737179250271  0.8216765822263312  0.6784578238582881
  0.4930823680258354  0.4917289512359232  0.5007854081129965
  0.4930823680258354  0.9993489979716157  0.0084054548486891
  0.0029590044009094  0.5079698154401174  0.9921645906444806
  0.9830173201714577  0.9974670910469872  0.5026673150376251
  0.1166790075797219  0.8810355721558382  0.6190988339287883
  0.0933172737591343  0.1264286922249542  0.3737057138596509
  0.8645003494383505  0.8724733706595889  0.3815536273758455
  0.8645003494383505  0.1185807787087880  0.6276610354250234
  0.8778942573080559  0.6303244197238638  0.1121571258010821
  0.8778942573080559  0.3879772802835301  0.8698099863607485
  0.1327844086960435  0.6256158639019221  0.8745185421826972
  0.1376625742298829  0.3923346769198036  0.1077997291648087
  0.6143037601335836  0.1146312368150838  0.8773773915191738
  0.6195333086752226  0.8907245235511183  0.1389542381961002
  0.3705319711569666  0.1291112065277792  0.1208948705293449
  0.3792359568048967  0.8632568923935550  0.8930845959859796
  0.6143037601335836  0.6227570145654384  0.3855031692695355
  0.6195333086752226  0.3611801678885262  0.6094098825334939
  0.3792359568048967  0.6070498100986327  0.6368775136910644
  0.3705319711569666  0.3792395355552531  0.3710231995568473
  0.7322619709735501  0.7462619083130717  0.7538724977715405
  0.7505401753365415  0.2523280560105527  0.2478063500740738
  0.2478242904819129  0.7532950463713358  0.2571719422535251
  0.2478242904819129  0.2429624638311085  0.7468393597132764
  0.9989484889911507  0.9997683276595202  0.9719022010828327
  0.9989484889911507  0.5282322050017796  0.5003660784250921
  0.4552269547745917  0.0107412974106161  0.4893931086739961
  0.5310614862350213  0.4896280461382144  0.0105063599463908
 
  0.00000000E+00  0.00000000E+00  0.00000000E+00
  0.00000000E+00  0.00000000E+00  0.00000000E+00
  0.00000000E+00  0.00000000E+00  0.00000000E+00
  0.00000000E+00  0.00000000E+00  0.00000000E+00
  0.00000000E+00  0.00000000E+00  0.00000000E+00
  0.00000000E+00  0.00000000E+00  0.00000000E+00
  0.00000000E+00  0.00000000E+00  0.00000000E+00
  0.00000000E+00  0.00000000E+00  0.00000000E+00
  0.00000000E+00  0.00000000E+00  0.00000000E+00
  0.00000000E+00  0.00000000E+00  0.00000000E+00
  0.00000000E+00  0.00000000E+00  0.00000000E+00
  0.00000000E+00  0.00000000E+00  0.00000000E+00
  0.00000000E+00  0.00000000E+00  0.00000000E+00
  0.00000000E+00  0.00000000E+00  0.00000000E+00
  0.00000000E+00  0.00000000E+00  0.00000000E+00
  0.00000000E+00  0.00000000E+00  0.00000000E+00
  0.00000000E+00  0.00000000E+00  0.00000000E+00
  0.00000000E+00  0.00000000E+00  0.00000000E+00
  0.00000000E+00  0.00000000E+00  0.00000000E+00
  0.00000000E+00  0.00000000E+00  0.00000000E+00
  0.00000000E+00  0.00000000E+00  0.00000000E+00
  0.00000000E+00  0.00000000E+00  0.00000000E+00
  0.00000000E+00  0.00000000E+00  0.00000000E+00
  0.00000000E+00  0.00000000E+00  0.00000000E+00
  0.00000000E+00  0.00000000E+00  0.00000000E+00
  0.00000000E+00  0.00000000E+00  0.00000000E+00
  0.00000000E+00  0.00000000E+00  0.00000000E+00
  0.00000000E+00  0.00000000E+00  0.00000000E+00
  0.00000000E+00  0.00000000E+00  0.00000000E+00
  0.00000000E+00  0.00000000E+00  0.00000000E+00
  0.00000000E+00  0.00000000E+00  0.00000000E+00
  0.00000000E+00  0.00000000E+00  0.00000000E+00
  0.00000000E+00  0.00000000E+00  0.00000000E+00
  0.00000000E+00  0.00000000E+00  0.00000000E+00
  0.00000000E+00  0.00000000E+00  0.00000000E+00
  0.00000000E+00  0.00000000E+00  0.00000000E+00
  0.00000000E+00  0.00000000E+00  0.00000000E+00
  0.00000000E+00  0.00000000E+00  0.00000000E+00
  0.00000000E+00  0.00000000E+00  0.00000000E+00
  0.00000000E+00  0.00000000E+00  0.00000000E+00
  0.00000000E+00  0.00000000E+00  0.00000000E+00
  0.00000000E+00  0.00000000E+00  0.00000000E+00
  0.00000000E+00  0.00000000E+00  0.00000000E+00
  0.00000000E+00  0.00000000E+00  0.00000000E+00
  0.00000000E+00  0.00000000E+00  0.00000000E+00
  0.00000000E+00  0.00000000E+00  0.00000000E+00
  0.00000000E+00  0.00000000E+00  0.00000000E+00
  0.00000000E+00  0.00000000E+00  0.00000000E+00
  0.00000000E+00  0.00000000E+00  0.00000000E+00
  0.00000000E+00  0.00000000E+00  0.00000000E+00
  0.00000000E+00  0.00000000E+00  0.00000000E+00
  0.00000000E+00  0.00000000E+00  0.00000000E+00
