Li24 P4 S20 Cl4                         
   1.00000000000000     
     9.6946854437408234    0.0000000000000000    0.0000000000000000
     0.0000000000000000    9.6946854437408234    0.0000000000000000
     0.0000000000000000    0.0000000000000000    9.6946854437408234
   Li   P    S    Cl
    24     4    20     4
Direct
  0.9775764823622097  0.2731057386374403  0.2270286674471791
  0.9666955652305518  0.7442781665915987  0.7558562394930206
  0.0182778760758282  0.2007561692901874  0.8110289324803688
  0.0182778760758282  0.6891054736042435  0.2993782367944249
  0.3319705422836989  0.3202845964461360  0.9562155422212655
  0.1715096542913201  0.8164606054702617  0.0370110243901323
  0.6981591139235803  0.2917870838660832  0.0182795133894160
  0.6715228803695652  0.7098753800206694  0.9840450633306261
  0.2658224625167875  0.9844151747479586  0.2936730794386904
  0.2099962890880533  0.0152065548314368  0.8057270003926362
  0.7997663145737519  0.9677374094987741  0.8169769274794518
  0.8243382214267925  0.0248641203875408  0.1838766037192272
  0.2099962890880533  0.6944074056919760  0.4849278512531683
  0.2658224625167875  0.2064613266459361  0.5157192313366536
  0.7997663145737519  0.6831574786051675  0.5323969965858382
  0.8243382214267925  0.3162578023653779  0.4752702856970856
  0.1715096542913201  0.4631233816945013  0.6836738006143506
  0.3319705422836989  0.5439188638633539  0.1798498096384833
  0.6981591139235803  0.4818548926952033  0.2083473222185290
  0.6715228803695652  0.5160893427539861  0.7902590260639428
  0.4742782711720466  0.1758063036679758  0.6890886617170437
  0.4742782711720466  0.8110457443675756  0.3243281024166365
  0.5324214584314930  0.1833755549234439  0.3167588511611754
  0.5151773238733242  0.8216630957572235  0.6784713103273958
  0.4930836699728260  0.4917297351236698  0.5007885024480672
  0.4930836699728260  0.9993459036365451  0.0084046709609424
  0.0029601594069675  0.5079641955880874  0.9921702104965107
  0.9830184798326655  0.9974690673831290  0.5026653387014832
  0.1166801704986185  0.8810382412486035  0.6190961648360229
  0.0933229264826636  0.1264306056283431  0.3737038004562621
  0.8645013179875960  0.8724797567964799  0.3815491018776669
  0.8645013179875960  0.1185853042069667  0.6276546492881323
  0.8778935635726697  0.6303151509793494  0.1121682314471215
  0.8778935635726697  0.3879661746374907  0.8698192551052628
  0.1327802427723412  0.6256120064450883  0.8745223996395310
  0.1376640698872862  0.3923305631711926  0.1078038429134196
  0.6143086666986832  0.1146264726602553  0.8773753958219856
  0.6195267193435328  0.8907113786725276  0.1389478345394863
  0.3705380676838246  0.1291119272236898  0.1208946030173621
  0.3792305018330353  0.8632624602522441  0.8930755223068374
  0.6143086666986832  0.6227590102626266  0.3855079334243641
  0.6195267193435328  0.3611865715451401  0.6094230274120847
  0.3792305018330353  0.6070588837777748  0.6368719458323753
  0.3705380676838246  0.3792398030672359  0.3710224788609366
  0.7322678397629119  0.7462595393565579  0.7538748667280544
  0.7505371958954186  0.2523243291355044  0.2478100769491220
  0.2478246275263274  0.7532969810981456  0.2571660080765881
  0.2478246275263274  0.2429683980080455  0.7468374249864667
  0.9989544692028574  0.9997594850593003  0.9718779787854572
  0.9989544692028574  0.5282564272991550  0.5003749210253119
  0.4552183656263367  0.0107479684614304  0.4893864376231818
  0.5310723489520299  0.4896255010510870  0.0105089050335181
 
  0.00000000E+00  0.00000000E+00  0.00000000E+00
  0.00000000E+00  0.00000000E+00  0.00000000E+00
  0.00000000E+00  0.00000000E+00  0.00000000E+00
  0.00000000E+00  0.00000000E+00  0.00000000E+00
  0.00000000E+00  0.00000000E+00  0.00000000E+00
  0.00000000E+00  0.00000000E+00  0.00000000E+00
  0.00000000E+00  0.00000000E+00  0.00000000E+00
  0.00000000E+00  0.00000000E+00  0.00000000E+00
  0.00000000E+00  0.00000000E+00  0.00000000E+00
  0.00000000E+00  0.00000000E+00  0.00000000E+00
  0.00000000E+00  0.00000000E+00  0.00000000E+00
  0.00000000E+00  0.00000000E+00  0.00000000E+00
  0.00000000E+00  0.00000000E+00  0.00000000E+00
  0.00000000E+00  0.00000000E+00  0.00000000E+00
  0.00000000E+00  0.00000000E+00  0.00000000E+00
  0.00000000E+00  0.00000000E+00  0.00000000E+00
  0.00000000E+00  0.00000000E+00  0.00000000E+00
  0.00000000E+00  0.00000000E+00  0.00000000E+00
  0.00000000E+00  0.00000000E+00  0.00000000E+00
  0.00000000E+00  0.00000000E+00  0.00000000E+00
  0.00000000E+00  0.00000000E+00  0.00000000E+00
  0.00000000E+00  0.00000000E+00  0.00000000E+00
  0.00000000E+00  0.00000000E+00  0.00000000E+00
  0.00000000E+00  0.00000000E+00  0.00000000E+00
  0.00000000E+00  0.00000000E+00  0.00000000E+00
  0.00000000E+00  0.00000000E+00  0.00000000E+00
  0.00000000E+00  0.00000000E+00  0.00000000E+00
  0.00000000E+00  0.00000000E+00  0.00000000E+00
  0.00000000E+00  0.00000000E+00  0.00000000E+00
  0.00000000E+00  0.00000000E+00  0.00000000E+00
  0.00000000E+00  0.00000000E+00  0.00000000E+00
  0.00000000E+00  0.00000000E+00  0.00000000E+00
  0.00000000E+00  0.00000000E+00  0.00000000E+00
  0.00000000E+00  0.00000000E+00  0.00000000E+00
  0.00000000E+00  0.00000000E+00  0.00000000E+00
  0.00000000E+00  0.00000000E+00  0.00000000E+00
  0.00000000E+00  0.00000000E+00  0.00000000E+00
  0.00000000E+00  0.00000000E+00  0.00000000E+00
  0.00000000E+00  0.00000000E+00  0.00000000E+00
  0.00000000E+00  0.00000000E+00  0.00000000E+00
  0.00000000E+00  0.00000000E+00  0.00000000E+00
  0.00000000E+00  0.00000000E+00  0.00000000E+00
  0.00000000E+00  0.00000000E+00  0.00000000E+00
  0.00000000E+00  0.00000000E+00  0.00000000E+00
  0.00000000E+00  0.00000000E+00  0.00000000E+00
  0.00000000E+00  0.00000000E+00  0.00000000E+00
  0.00000000E+00  0.00000000E+00  0.00000000E+00
  0.00000000E+00  0.00000000E+00  0.00000000E+00
  0.00000000E+00  0.00000000E+00  0.00000000E+00
  0.00000000E+00  0.00000000E+00  0.00000000E+00
  0.00000000E+00  0.00000000E+00  0.00000000E+00
  0.00000000E+00  0.00000000E+00  0.00000000E+00
