Li24 P4 S20 Cl4                         
   1.00000000000000     
     9.6541060978727788    0.0000000000000000    0.0000000000000000
     0.0000000000000000    9.6541060978727788    0.0000000000000000
     0.0000000000000000    0.0000000000000000    9.6541060978727788
   Li   P    S    Cl
    24     4    20     4
Direct
  0.9832330537978567  0.1968060347596460  0.2110849939530957
  0.9739143876791643  0.6906713628822270  0.7099415159152952
  0.0435204924891824  0.1502173220949176  0.8123055870874222
  0.0102540478064853  0.7944818049007164  0.2033087215386987
  0.2859698317746619  0.3100166290560242  0.9737227605314330
  0.3158878501561395  0.6571066901593871  0.0453284774312289
  0.7859230064134394  0.1918325241963467  0.0238676205626290
  0.8157904748945389  0.8446119985269281  0.9524818766403040
  0.2123017715771549  0.9843462586209895  0.1698873830268522
  0.3155980388270705  0.0079689829295747  0.7182051746395215
  0.6792330563586344  0.9614373477072435  0.6620001366566682
  0.6759853880081713  0.0520044663966069  0.3259870382401420
  0.2805822752078221  0.8106946689293681  0.4802808668865589
  0.3296326124170996  0.1915425544313617  0.5133886063973334
  0.7805926064447556  0.6907928524789388  0.5175712305539684
  0.8298214811732301  0.3101723767635423  0.4841682866542226
  0.1758101577941891  0.4497200430823093  0.6717725740873599
  0.1791545374415171  0.5402738599536595  0.3357122616814804
  0.8152929494449225  0.4938341886028155  0.2794485468857571
  0.7123323939119305  0.5172427419440451  0.8274656148372669
  0.4832866861565296  0.3049079149506378  0.7865041736482192
  0.4738468481729967  0.8113113705160018  0.2880149453794857
  0.5434087143220863  0.3513969711276667  0.1852891675107929
  0.5102505348917665  0.7072029436646001  0.7944764870096200
  0.4973733656876439  0.5029781017492311  0.4914510836178140
  0.5039312758982392  0.0052157899100435  0.0035696956789915
  0.0039496850811192  0.4964628536787732  0.9942233215618572
  0.9974155932127577  0.9986454828214948  0.5061903748905832
  0.1127722495658377  0.8799646815791368  0.6407772361710603
  0.1289566415053868  0.1134361137232382  0.3851976269558664
  0.8664027685330922  0.8836086636664223  0.3839299724977335
  0.8735838610728256  0.1200713976467131  0.6283988125556212
  0.8661685707372139  0.6297533186843697  0.0877885808577231
  0.8973312841993739  0.3601128280808238  0.8711212761262145
  0.1376771340150854  0.6061745843548562  0.8713254830395349
  0.1202348998855603  0.3916447323897045  0.1382096862966626
  0.6202027162732959  0.1100019435328680  0.8595188298707777
  0.6376324294678758  0.8955424110412979  0.1265060202859722
  0.3972530571378650  0.1416089904001969  0.1265534945093612
  0.3661352115391973  0.8719537428164434  0.9099716832175618
  0.6126717940966823  0.6218691472585901  0.3569977067441436
  0.6290128140500602  0.3881452543694150  0.6123159899763571
  0.3664199697845394  0.6179239369247290  0.6138685251332651
  0.3735420167134251  0.3816439231960275  0.3691910454800453
  0.7421928909018493  0.7439470562891138  0.7464434677098757
  0.7593186177237299  0.2645704012965079  0.2535870276158136
  0.2421991358861045  0.7577706654174980  0.2513354116584341
  0.2593588480886211  0.2371891801703562  0.7440243738604156
  0.9944469227888216  0.0162712165597231  0.0279978006340132
  0.9807214295113539  0.5195732320253250  0.4969424763835701
  0.4806175759506346  0.9821132812188942  0.5008668726951261
  0.4945265046302402  0.4853756741225659  0.9696348792202669
 
  0.00000000E+00  0.00000000E+00  0.00000000E+00
  0.00000000E+00  0.00000000E+00  0.00000000E+00
  0.00000000E+00  0.00000000E+00  0.00000000E+00
  0.00000000E+00  0.00000000E+00  0.00000000E+00
  0.00000000E+00  0.00000000E+00  0.00000000E+00
  0.00000000E+00  0.00000000E+00  0.00000000E+00
  0.00000000E+00  0.00000000E+00  0.00000000E+00
  0.00000000E+00  0.00000000E+00  0.00000000E+00
  0.00000000E+00  0.00000000E+00  0.00000000E+00
  0.00000000E+00  0.00000000E+00  0.00000000E+00
  0.00000000E+00  0.00000000E+00  0.00000000E+00
  0.00000000E+00  0.00000000E+00  0.00000000E+00
  0.00000000E+00  0.00000000E+00  0.00000000E+00
  0.00000000E+00  0.00000000E+00  0.00000000E+00
  0.00000000E+00  0.00000000E+00  0.00000000E+00
  0.00000000E+00  0.00000000E+00  0.00000000E+00
  0.00000000E+00  0.00000000E+00  0.00000000E+00
  0.00000000E+00  0.00000000E+00  0.00000000E+00
  0.00000000E+00  0.00000000E+00  0.00000000E+00
  0.00000000E+00  0.00000000E+00  0.00000000E+00
  0.00000000E+00  0.00000000E+00  0.00000000E+00
  0.00000000E+00  0.00000000E+00  0.00000000E+00
  0.00000000E+00  0.00000000E+00  0.00000000E+00
  0.00000000E+00  0.00000000E+00  0.00000000E+00
  0.00000000E+00  0.00000000E+00  0.00000000E+00
  0.00000000E+00  0.00000000E+00  0.00000000E+00
  0.00000000E+00  0.00000000E+00  0.00000000E+00
  0.00000000E+00  0.00000000E+00  0.00000000E+00
  0.00000000E+00  0.00000000E+00  0.00000000E+00
  0.00000000E+00  0.00000000E+00  0.00000000E+00
  0.00000000E+00  0.00000000E+00  0.00000000E+00
  0.00000000E+00  0.00000000E+00  0.00000000E+00
  0.00000000E+00  0.00000000E+00  0.00000000E+00
  0.00000000E+00  0.00000000E+00  0.00000000E+00
  0.00000000E+00  0.00000000E+00  0.00000000E+00
  0.00000000E+00  0.00000000E+00  0.00000000E+00
  0.00000000E+00  0.00000000E+00  0.00000000E+00
  0.00000000E+00  0.00000000E+00  0.00000000E+00
  0.00000000E+00  0.00000000E+00  0.00000000E+00
  0.00000000E+00  0.00000000E+00  0.00000000E+00
  0.00000000E+00  0.00000000E+00  0.00000000E+00
  0.00000000E+00  0.00000000E+00  0.00000000E+00
  0.00000000E+00  0.00000000E+00  0.00000000E+00
  0.00000000E+00  0.00000000E+00  0.00000000E+00
  0.00000000E+00  0.00000000E+00  0.00000000E+00
  0.00000000E+00  0.00000000E+00  0.00000000E+00
  0.00000000E+00  0.00000000E+00  0.00000000E+00
  0.00000000E+00  0.00000000E+00  0.00000000E+00
  0.00000000E+00  0.00000000E+00  0.00000000E+00
  0.00000000E+00  0.00000000E+00  0.00000000E+00
  0.00000000E+00  0.00000000E+00  0.00000000E+00
  0.00000000E+00  0.00000000E+00  0.00000000E+00
