Li24 P4 S20 Cl4                         
   1.00000000000000     
     9.6541060978727788    0.0000000000000000    0.0000000000000000
     0.0000000000000000    9.6541060978727788    0.0000000000000000
     0.0000000000000000    0.0000000000000000    9.6541060978727788
   Li   P    S    Cl
    24     4    20     4
Direct
  0.9832324410746054  0.1968063026669640  0.2110863789925901
  0.9739158508597896  0.6906752946368542  0.7099468818405512
  0.0435186816770781  0.1502272763654133  0.8123077937767462
  0.0102552392679982  0.7944668451820007  0.2033309877340415
  0.2859715945763952  0.3100206393958942  0.9737192249807407
  0.3158941111637645  0.6571071887589852  0.0453246920838311
  0.7859249579003915  0.1918316992541165  0.0238686815246822
  0.8157939061476398  0.8446121509182092  0.9524880064672914
  0.2122972161686576  0.9843372774288284  0.1698720609957576
  0.3155918196275067  0.0079707005137806  0.7182070718971687
  0.6792402481734001  0.9614415919460484  0.6620018087750452
  0.6759846060529995  0.0520043095448202  0.3259897322089245
  0.2805825585700390  0.8106957080806936  0.4802774296588481
  0.3296294137011770  0.1915407152929447  0.5133862686959674
  0.7805951785648446  0.6907889668355267  0.5175771982984756
  0.8298204760508696  0.3101767875123969  0.4841679390792208
  0.1758075293389467  0.4497202983572990  0.6717712512357181
  0.1791598446173879  0.5402685309291471  0.3357097373891449
  0.8152801873889928  0.4938335296338039  0.2794435235362940
  0.7123291720425939  0.5172493779976008  0.8274743968720983
  0.4832866994262872  0.3049063707477870  0.7865005517298798
  0.4738471971720983  0.8113127158146511  0.2880145021505029
  0.5434043487211255  0.3513824486683745  0.1852845047944101
  0.5102516391997725  0.7072135575399585  0.7944610049572063
  0.4973715977052180  0.5029740638017373  0.4914507284879051
  0.5039319646581433  0.0052201447422391  0.0035731193548045
  0.0039440000922681  0.4964596307295821  0.9942244774834066
  0.9974194400993994  0.9986373368799022  0.5061976979975498
  0.1127686359596112  0.8799693852869837  0.6407666665963561
  0.1289579281171811  0.1134284118854012  0.3851897612603139
  0.8664006777502635  0.8836105225964062  0.3839371516436145
  0.8735896813481787  0.1200771447627247  0.6283957156524167
  0.8661766998547620  0.6297515036589587  0.0877914236924937
  0.8973293251804293  0.3601215213660183  0.8711263603049915
  0.1376778703105330  0.6061717523821386  0.8713278716202524
  0.1202335101691716  0.3916425658777456  0.1382042997450483
  0.6202009330053428  0.1100022793582838  0.8595240891055553
  0.6376295119728539  0.8955462897783590  0.1265049128112423
  0.3972476416950315  0.1416007227784490  0.1265457383247792
  0.3661403331831679  0.8719550381384167  0.9099682940720584
  0.6126714285176647  0.6218738795253671  0.3570051910235534
  0.6290131361934215  0.3881541753746163  0.6123181964526907
  0.3664188481249226  0.6179215480690843  0.6138635207519485
  0.3735504402772492  0.3816431635411348  0.3691934105532511
  0.7421969396283359  0.7439514732496519  0.7464479089834484
  0.7593185134219738  0.2645681500871575  0.2535875851166622
  0.2422039829906453  0.7577665074450195  0.2513326509704257
  0.2593596467897257  0.2371916946886401  0.7440221422419100
  0.9944422689098076  0.0162792520998281  0.0279967405737835
  0.9807215107880793  0.5195757059375481  0.4969398256880737
  0.4806167265086572  0.9821117601715486  0.5008718812363639
  0.4945243503633776  0.4853666053648737  0.9696338115799819
 
  0.00000000E+00  0.00000000E+00  0.00000000E+00
  0.00000000E+00  0.00000000E+00  0.00000000E+00
  0.00000000E+00  0.00000000E+00  0.00000000E+00
  0.00000000E+00  0.00000000E+00  0.00000000E+00
  0.00000000E+00  0.00000000E+00  0.00000000E+00
  0.00000000E+00  0.00000000E+00  0.00000000E+00
  0.00000000E+00  0.00000000E+00  0.00000000E+00
  0.00000000E+00  0.00000000E+00  0.00000000E+00
  0.00000000E+00  0.00000000E+00  0.00000000E+00
  0.00000000E+00  0.00000000E+00  0.00000000E+00
  0.00000000E+00  0.00000000E+00  0.00000000E+00
  0.00000000E+00  0.00000000E+00  0.00000000E+00
  0.00000000E+00  0.00000000E+00  0.00000000E+00
  0.00000000E+00  0.00000000E+00  0.00000000E+00
  0.00000000E+00  0.00000000E+00  0.00000000E+00
  0.00000000E+00  0.00000000E+00  0.00000000E+00
  0.00000000E+00  0.00000000E+00  0.00000000E+00
  0.00000000E+00  0.00000000E+00  0.00000000E+00
  0.00000000E+00  0.00000000E+00  0.00000000E+00
  0.00000000E+00  0.00000000E+00  0.00000000E+00
  0.00000000E+00  0.00000000E+00  0.00000000E+00
  0.00000000E+00  0.00000000E+00  0.00000000E+00
  0.00000000E+00  0.00000000E+00  0.00000000E+00
  0.00000000E+00  0.00000000E+00  0.00000000E+00
  0.00000000E+00  0.00000000E+00  0.00000000E+00
  0.00000000E+00  0.00000000E+00  0.00000000E+00
  0.00000000E+00  0.00000000E+00  0.00000000E+00
  0.00000000E+00  0.00000000E+00  0.00000000E+00
  0.00000000E+00  0.00000000E+00  0.00000000E+00
  0.00000000E+00  0.00000000E+00  0.00000000E+00
  0.00000000E+00  0.00000000E+00  0.00000000E+00
  0.00000000E+00  0.00000000E+00  0.00000000E+00
  0.00000000E+00  0.00000000E+00  0.00000000E+00
  0.00000000E+00  0.00000000E+00  0.00000000E+00
  0.00000000E+00  0.00000000E+00  0.00000000E+00
  0.00000000E+00  0.00000000E+00  0.00000000E+00
  0.00000000E+00  0.00000000E+00  0.00000000E+00
  0.00000000E+00  0.00000000E+00  0.00000000E+00
  0.00000000E+00  0.00000000E+00  0.00000000E+00
  0.00000000E+00  0.00000000E+00  0.00000000E+00
  0.00000000E+00  0.00000000E+00  0.00000000E+00
  0.00000000E+00  0.00000000E+00  0.00000000E+00
  0.00000000E+00  0.00000000E+00  0.00000000E+00
  0.00000000E+00  0.00000000E+00  0.00000000E+00
  0.00000000E+00  0.00000000E+00  0.00000000E+00
  0.00000000E+00  0.00000000E+00  0.00000000E+00
  0.00000000E+00  0.00000000E+00  0.00000000E+00
  0.00000000E+00  0.00000000E+00  0.00000000E+00
  0.00000000E+00  0.00000000E+00  0.00000000E+00
  0.00000000E+00  0.00000000E+00  0.00000000E+00
  0.00000000E+00  0.00000000E+00  0.00000000E+00
  0.00000000E+00  0.00000000E+00  0.00000000E+00
