Li24 P4 S20 Cl4                         
   1.00000000000000     
     9.7381645720605405    0.0000000000000000    0.0000000000000000
     0.0000000000000000    9.7381645720605405    0.0000000000000000
     0.0000000000000000    0.0000000000000000    9.7381645720605405
   Li   P    S    Cl
    24     4    20     4
Direct
  0.9921109477093801  0.2377981905949579  0.2620674033204299
  0.9650712167842324  0.7539214394975453  0.7459441544178425
  0.0164722928054667  0.2903479688160933  0.7028144521820937
  0.0164722928054667  0.7970511417332941  0.2095176250992944
  0.1881154489687990  0.1826696434194364  0.9636407317947923
  0.2084210634457691  0.7983904618400591  0.0061964181527844
  0.8240323441040683  0.1540113395377700  0.0412773359445048
  0.7398708111631501  0.7207887399462805  0.9909736972509731
  0.2268431103387128  0.9863527487525419  0.2096462448050964
  0.3222403126246134  0.0456976016240424  0.6779086900872487
  0.6863010145527947  0.9719816497329984  0.7202036028718277
  0.6954678949244952  0.0088598976680221  0.3040700691458289
  0.3222403126246134  0.8219569038281390  0.4541679922913452
  0.2268431103387057  0.2902193491102914  0.5135128451628388
  0.6863010145527947  0.7796619910435529  0.5278839441823823
  0.6954678949244952  0.1957955247695660  0.4910056962473657
  0.2084210634457620  0.4936691757625891  0.7014751320753215
  0.1881154489687990  0.5362248621205884  0.3171959504959443
  0.8240323441040683  0.4585882579708758  0.3458542543776248
  0.7398708111631714  0.5088918966644076  0.7790768539690931
  0.4666684538353595  0.3233189423686613  0.8298655262805391
  0.4666684538353595  0.6700000676348415  0.1765466515467264
  0.5546788391744836  0.3294040598954652  0.1704615340199155
  0.5046185713391336  0.6901607824225957  0.8097048114927992
  0.5031595926755443  0.4992479188974920  0.4919570104076438
  0.5031595926755443  0.0079085835077369  0.0006176750178886
  0.0066477909281620  0.4875695594487736  0.0122960344666070
  0.0053360252479433  0.9872594403979706  0.5126061535174171
  0.1386949619962211  0.8722242686414250  0.6276413252739628
  0.1361983847957437  0.1050428829565372  0.3948227109588506
  0.8807210345333728  0.8640401307228808  0.3959012811050284
  0.8807210345333728  0.1039643128103451  0.6358254631925070
  0.8864003758420443  0.6011898534757529  0.1431438570733497
  0.8864003758420443  0.3567217368420381  0.8986757404396277
  0.1104081788314877  0.6182026489786672  0.8816629449367135
  0.1423909712177585  0.3749652438482052  0.1249003500671825
  0.6301787090723212  0.1332582963988899  0.8886106166263491
  0.6126382097081903  0.8749629775134584  0.1232535899444809
  0.3883488431961177  0.1386744218503117  0.1175711861078136
  0.3816204717465332  0.8965440145265158  0.8684147925700169
  0.6301787090723212  0.6112549772890387  0.3666072975164979
  0.6126382097081903  0.3766120039708998  0.6249026164019293
  0.3816204717465332  0.6314508013453709  0.6033215793888720
  0.3883488431961177  0.3822944078075670  0.3611911720650689
  0.7340532650672881  0.7422474095869871  0.7576181843284007
  0.7585467495923031  0.2366987638843287  0.2631668300310449
  0.2508111398473073  0.7535739744167427  0.2370757510674452
  0.2508111398473073  0.2627898428479355  0.7462916194986451
  0.0315499734002834  0.9947186706478947  0.0412137292210059
  0.0315499734002834  0.4586518646943890  0.5051469232674931
  0.5332254114041955  0.9870736987901914  0.5127918951252177
  0.5267271604423226  0.5139354889470572  0.9859301049683306
 
  0.00000000E+00  0.00000000E+00  0.00000000E+00
  0.00000000E+00  0.00000000E+00  0.00000000E+00
  0.00000000E+00  0.00000000E+00  0.00000000E+00
  0.00000000E+00  0.00000000E+00  0.00000000E+00
  0.00000000E+00  0.00000000E+00  0.00000000E+00
  0.00000000E+00  0.00000000E+00  0.00000000E+00
  0.00000000E+00  0.00000000E+00  0.00000000E+00
  0.00000000E+00  0.00000000E+00  0.00000000E+00
  0.00000000E+00  0.00000000E+00  0.00000000E+00
  0.00000000E+00  0.00000000E+00  0.00000000E+00
  0.00000000E+00  0.00000000E+00  0.00000000E+00
  0.00000000E+00  0.00000000E+00  0.00000000E+00
  0.00000000E+00  0.00000000E+00  0.00000000E+00
  0.00000000E+00  0.00000000E+00  0.00000000E+00
  0.00000000E+00  0.00000000E+00  0.00000000E+00
  0.00000000E+00  0.00000000E+00  0.00000000E+00
  0.00000000E+00  0.00000000E+00  0.00000000E+00
  0.00000000E+00  0.00000000E+00  0.00000000E+00
  0.00000000E+00  0.00000000E+00  0.00000000E+00
  0.00000000E+00  0.00000000E+00  0.00000000E+00
  0.00000000E+00  0.00000000E+00  0.00000000E+00
  0.00000000E+00  0.00000000E+00  0.00000000E+00
  0.00000000E+00  0.00000000E+00  0.00000000E+00
  0.00000000E+00  0.00000000E+00  0.00000000E+00
  0.00000000E+00  0.00000000E+00  0.00000000E+00
  0.00000000E+00  0.00000000E+00  0.00000000E+00
  0.00000000E+00  0.00000000E+00  0.00000000E+00
  0.00000000E+00  0.00000000E+00  0.00000000E+00
  0.00000000E+00  0.00000000E+00  0.00000000E+00
  0.00000000E+00  0.00000000E+00  0.00000000E+00
  0.00000000E+00  0.00000000E+00  0.00000000E+00
  0.00000000E+00  0.00000000E+00  0.00000000E+00
  0.00000000E+00  0.00000000E+00  0.00000000E+00
  0.00000000E+00  0.00000000E+00  0.00000000E+00
  0.00000000E+00  0.00000000E+00  0.00000000E+00
  0.00000000E+00  0.00000000E+00  0.00000000E+00
  0.00000000E+00  0.00000000E+00  0.00000000E+00
  0.00000000E+00  0.00000000E+00  0.00000000E+00
  0.00000000E+00  0.00000000E+00  0.00000000E+00
  0.00000000E+00  0.00000000E+00  0.00000000E+00
  0.00000000E+00  0.00000000E+00  0.00000000E+00
  0.00000000E+00  0.00000000E+00  0.00000000E+00
  0.00000000E+00  0.00000000E+00  0.00000000E+00
  0.00000000E+00  0.00000000E+00  0.00000000E+00
  0.00000000E+00  0.00000000E+00  0.00000000E+00
  0.00000000E+00  0.00000000E+00  0.00000000E+00
  0.00000000E+00  0.00000000E+00  0.00000000E+00
  0.00000000E+00  0.00000000E+00  0.00000000E+00
  0.00000000E+00  0.00000000E+00  0.00000000E+00
  0.00000000E+00  0.00000000E+00  0.00000000E+00
  0.00000000E+00  0.00000000E+00  0.00000000E+00
  0.00000000E+00  0.00000000E+00  0.00000000E+00
