Li24 P4 S20 Cl4                         
   1.00000000000000     
     9.7381645720605405    0.0000000000000000    0.0000000000000000
     0.0000000000000000    9.7381645720605405    0.0000000000000000
     0.0000000000000000    0.0000000000000000    9.7381645720605405
   Li   P    S    Cl
    24     4    20     4
Direct
  0.9921108581414941  0.2377960010996389  0.2620695928157488
  0.9650708740222882  0.7539170785817007  0.7459485153336871
  0.0164721970159576  0.2903483636998985  0.7028128012725077
  0.0164721970159576  0.7970527926428801  0.2095172302154893
  0.1881169691237190  0.1826724992666300  0.9636404921116934
  0.2084202150973624  0.7983913766714892  0.0061969967313189
  0.8240322772182083  0.1540155690108662  0.0412764416715987
  0.7398528774636830  0.7207731408947637  0.9909747988099724
  0.2268453759863931  0.9863534970310610  0.2096475696110289
  0.3222360347180384  0.0456965760404842  0.6779114705163778
  0.6863058028961291  0.9719806804476647  0.7202051354499446
  0.6954691576767971  0.0088599909069131  0.3040688455017815
  0.3222360347180384  0.8219541233990100  0.4541690178749036
  0.2268453759863860  0.2902180243043588  0.5135120968843196
  0.6863058028961291  0.7796604584654361  0.5278849134677159
  0.6954691576767971  0.1957967484136134  0.4910056030084746
  0.2084202150973553  0.4936685971840546  0.7014742172438915
  0.1881169691237190  0.5362251018036872  0.3171930946487507
  0.8240322772182083  0.4585891522437819  0.3458500249045287
  0.7398528774637043  0.5088907951054082  0.7790924530206098
  0.4666685232181393  0.3233175534821413  0.8298597012543567
  0.4666685232181393  0.6700058926610239  0.1765480404332465
  0.5546795772167599  0.3294008481744015  0.1704647457409791
  0.5046171681020155  0.6901693493675509  0.8096962445478439
  0.5031610566652773  0.4992497351146028  0.4919660217901480
  0.5031610566652773  0.0078995721252326  0.0006158588007779
  0.0066517065915974  0.4875745226940751  0.0122910712213056
  0.0053349374609297  0.9872591626205534  0.5126064312948344
  0.1386894654408195  0.8722241681128295  0.6276414258025582
  0.1361970910714447  0.1050397893825945  0.3948258045327933
  0.8807234333178613  0.8640441548084965  0.3959023184982939
  0.8807234333178613  0.1039632754170796  0.6358214391068913
  0.8864014852651394  0.6011917437802339  0.1431410339366934
  0.8864014852651394  0.3567245599786943  0.8986738501351468
  0.1104072482450746  0.6181959987098651  0.8816695952055156
  0.1423866835705070  0.3749646989339723  0.1249008949814154
  0.6301782183365461  0.1332572975173960  0.8886096663934708
  0.6126352752160642  0.8749693105786349  0.1232486265652213
  0.3883485667073217  0.1386764701352874  0.1175710601411524
  0.3816215894467874  0.8965484854192454  0.8684193040813284
  0.6301782183365461  0.6112559275219169  0.3666082963979918
  0.6126352752160642  0.3766169673501594  0.6248962833367528
  0.3816215894467874  0.6314462898340594  0.6033171084961424
  0.3883485667073217  0.3822945337742283  0.3611891237800933
  0.7340543897480032  0.7422459520292861  0.7576196418861016
  0.7585483038899170  0.2366984746889358  0.2631671192264378
  0.2508097673301464  0.7535753747662781  0.2370753802002028
  0.2508097673301464  0.2627902137151779  0.7462902191491096
  0.0315565339300221  0.9947227167976891  0.0412201228682036
  0.0315565339300221  0.4586454710471912  0.5051428771176987
  0.5332326606389159  0.9870701926471170  0.5127954012682920
  0.5267389907015882  0.5139415614007277  0.9859240325146601
 
  0.00000000E+00  0.00000000E+00  0.00000000E+00
  0.00000000E+00  0.00000000E+00  0.00000000E+00
  0.00000000E+00  0.00000000E+00  0.00000000E+00
  0.00000000E+00  0.00000000E+00  0.00000000E+00
  0.00000000E+00  0.00000000E+00  0.00000000E+00
  0.00000000E+00  0.00000000E+00  0.00000000E+00
  0.00000000E+00  0.00000000E+00  0.00000000E+00
  0.00000000E+00  0.00000000E+00  0.00000000E+00
  0.00000000E+00  0.00000000E+00  0.00000000E+00
  0.00000000E+00  0.00000000E+00  0.00000000E+00
  0.00000000E+00  0.00000000E+00  0.00000000E+00
  0.00000000E+00  0.00000000E+00  0.00000000E+00
  0.00000000E+00  0.00000000E+00  0.00000000E+00
  0.00000000E+00  0.00000000E+00  0.00000000E+00
  0.00000000E+00  0.00000000E+00  0.00000000E+00
  0.00000000E+00  0.00000000E+00  0.00000000E+00
  0.00000000E+00  0.00000000E+00  0.00000000E+00
  0.00000000E+00  0.00000000E+00  0.00000000E+00
  0.00000000E+00  0.00000000E+00  0.00000000E+00
  0.00000000E+00  0.00000000E+00  0.00000000E+00
  0.00000000E+00  0.00000000E+00  0.00000000E+00
  0.00000000E+00  0.00000000E+00  0.00000000E+00
  0.00000000E+00  0.00000000E+00  0.00000000E+00
  0.00000000E+00  0.00000000E+00  0.00000000E+00
  0.00000000E+00  0.00000000E+00  0.00000000E+00
  0.00000000E+00  0.00000000E+00  0.00000000E+00
  0.00000000E+00  0.00000000E+00  0.00000000E+00
  0.00000000E+00  0.00000000E+00  0.00000000E+00
  0.00000000E+00  0.00000000E+00  0.00000000E+00
  0.00000000E+00  0.00000000E+00  0.00000000E+00
  0.00000000E+00  0.00000000E+00  0.00000000E+00
  0.00000000E+00  0.00000000E+00  0.00000000E+00
  0.00000000E+00  0.00000000E+00  0.00000000E+00
  0.00000000E+00  0.00000000E+00  0.00000000E+00
  0.00000000E+00  0.00000000E+00  0.00000000E+00
  0.00000000E+00  0.00000000E+00  0.00000000E+00
  0.00000000E+00  0.00000000E+00  0.00000000E+00
  0.00000000E+00  0.00000000E+00  0.00000000E+00
  0.00000000E+00  0.00000000E+00  0.00000000E+00
  0.00000000E+00  0.00000000E+00  0.00000000E+00
  0.00000000E+00  0.00000000E+00  0.00000000E+00
  0.00000000E+00  0.00000000E+00  0.00000000E+00
  0.00000000E+00  0.00000000E+00  0.00000000E+00
  0.00000000E+00  0.00000000E+00  0.00000000E+00
  0.00000000E+00  0.00000000E+00  0.00000000E+00
  0.00000000E+00  0.00000000E+00  0.00000000E+00
  0.00000000E+00  0.00000000E+00  0.00000000E+00
  0.00000000E+00  0.00000000E+00  0.00000000E+00
  0.00000000E+00  0.00000000E+00  0.00000000E+00
  0.00000000E+00  0.00000000E+00  0.00000000E+00
  0.00000000E+00  0.00000000E+00  0.00000000E+00
  0.00000000E+00  0.00000000E+00  0.00000000E+00
