Generated POSCAR
1.0
10.279498 0.0 0.0
0.0 10.279498 0.0
0.0 0.0 10.279498
Li K
24 4
Direct
0.9711100000000000 0.2500000000000000 0.2500000000000000
0.9711100000000000 0.7500000000000000 0.7500000000000000
0.0288900000000000 0.2500000000000000 0.7500000000000000
0.0288900000000000 0.7500000000000000 0.2500000000000000
0.2500000000000000 0.2500000000000000 0.9711100000000000
0.2500000000000000 0.7500000000000000 0.0288900000000000
0.7500000000000000 0.2500000000000000 0.0288900000000000
0.7500000000000000 0.7500000000000000 0.9711100000000000
0.2500000000000000 0.9711100000000000 0.2500000000000000
0.2500000000000000 0.0288900000000000 0.7500000000000000
0.7500000000000000 0.9711100000000000 0.7500000000000000
0.7500000000000000 0.0288900000000000 0.2500000000000000
0.2500000000000000 0.7500000000000000 0.4711100000000000
0.2500000000000000 0.2500000000000000 0.5288900000000000
0.7500000000000000 0.7500000000000000 0.5288900000000000
0.7500000000000000 0.2500000000000000 0.4711100000000000
0.2500000000000000 0.4711100000000000 0.7500000000000000
0.2500000000000000 0.5288900000000000 0.2500000000000000
0.7500000000000000 0.4711100000000000 0.2500000000000000
0.7500000000000000 0.5288900000000000 0.7500000000000000
0.4711100000000000 0.2500000000000000 0.7500000000000000
0.4711100000000000 0.7500000000000000 0.2500000000000000
0.5288900000000000 0.2500000000000000 0.2500000000000000
0.5288900000000000 0.7500000000000000 0.7500000000000000
0.7500000000000000 0.2500000000000000 0.2500000000000000
0.2500000000000000 0.7500000000000000 0.2500000000000000
0.7500000000000000 0.7500000000000000 0.7500000000000000
0.2500000000000000 0.2500000000000000 0.7500000000000000
