Generated POSCAR
1.0
10.279498 0.0 0.0
0.0 10.279498 0.0
0.0 0.0 10.279498
Li
0
Direct
