Li24 P4 S20 Cl4                         
   1.00000000000000     
    10.0228067168164330    0.0000000000000000    0.0000000000000000
     0.0000000000000000   10.0228067168164330    0.0000000000000000
     0.0000000000000000    0.0000000000000000   10.0228067168164330
   Li   P    S    Cl
    24     4    20     4
Direct
  0.9765295078528837  0.2501993471808043  0.2501976980133961
  0.9770857906274727  0.7516384152843861  0.7513420405456662
  0.0231632818006773  0.2498132410027427  0.7502584477951658
  0.0231307565220746  0.7497874541607787  0.2500474198142800
  0.2500745085408142  0.2501086617536288  0.9771170775225908
  0.2501109681324188  0.7498795947579573  0.0231200843410641
  0.7497516354013584  0.2501462147692518  0.0231349359456374
  0.7500648456555287  0.7500649707828021  0.9765468213949176
  0.2499935672216890  0.9766928612605914  0.2502718937902819
  0.2500051235891488  0.0232150457824603  0.7502824968435559
  0.7498857076833804  0.9768044370519408  0.7498138985581810
  0.7497869404856534  0.0231900774650256  0.2500588554854505
  0.2499196178709014  0.7497248603004402  0.4767153440591828
  0.2498616270927391  0.2500052850964668  0.5234840826035407
  0.7503821633771104  0.7497824697247712  0.5229647513725215
  0.7498393505868836  0.2499146526251948  0.4767401262723948
  0.2501707947449405  0.4767502637382807  0.7501344514576629
  0.2499037498434047  0.5231555040249289  0.2501454464132812
  0.7499290007723002  0.4767321713568730  0.2499023477337354
  0.7506573028224378  0.5232687023341434  0.7494576531485464
  0.4767478793289229  0.2502292095740717  0.7502817690884040
  0.4767198322354977  0.7499378302426769  0.2498899748762424
  0.5229590437334621  0.2500373636505487  0.2500782398925757
  0.5234807847406980  0.7500934831955116  0.7498155342721887
  0.5000042939740101  0.5000123312683857  0.5000556773421229
  0.5000568107436887  0.9999015538109568  0.0000100463383490
  0.9999510697409023  0.5000256498274412 -0.0000074567150880
  0.0000658060191694  0.0001168573193820  0.4999264025800869
  0.1183508598718828  0.8820447164920752  0.6179044764535407
  0.1180903107534120  0.1183326864745817  0.3817996152191217
  0.8819970721234138  0.8820425035578281  0.3817486648803477
  0.8819057541819971  0.1181502444364120  0.6180719268214070
  0.8817426871395282  0.6181762799651420  0.1179799934773708
  0.8818396133909391  0.3818905930633146  0.8819036271860279
  0.1181252149107519  0.6180227644302340  0.8818295699792227
  0.1179188047508328  0.3819155237335398  0.1182526222970595
  0.6181003187882703  0.1180572093500561  0.8818724080254989
  0.6182306982682688  0.8817374665542405  0.1180537457853295
  0.3818795227421588  0.1178560953430546  0.1182042185138097
  0.3820707689374143  0.8817490079298865  0.8818360500307547
  0.6180493357759587  0.6180648381289945  0.3818150101245281
  0.6181477075239745  0.3819167991558988  0.6181889499615111
  0.3819643733487109  0.6181750460891293  0.6182095515454484
  0.3817578540242741  0.3818821083788058  0.3821324327281594
  0.7502652522398444  0.7500195086358401  0.7497761185286800
  0.7497685197316381  0.2499380544519063  0.2499134293325132
  0.2499245376002417  0.7499400868502348  0.2499256468749596
  0.2499567570423200  0.2499894332871933  0.7502900277113866
  0.0000463660699865  0.9994558392584509  0.9991385996347144
  0.9999663705194710  0.4996695176626432  0.4993343180237939
  0.5000272867859478  0.9999836485266033  0.4998626660830907
  0.4996422523385794  0.4997615189014906  0.0001702699957886
 
  0.00000000E+00  0.00000000E+00  0.00000000E+00
  0.00000000E+00  0.00000000E+00  0.00000000E+00
  0.00000000E+00  0.00000000E+00  0.00000000E+00
  0.00000000E+00  0.00000000E+00  0.00000000E+00
  0.00000000E+00  0.00000000E+00  0.00000000E+00
  0.00000000E+00  0.00000000E+00  0.00000000E+00
  0.00000000E+00  0.00000000E+00  0.00000000E+00
  0.00000000E+00  0.00000000E+00  0.00000000E+00
  0.00000000E+00  0.00000000E+00  0.00000000E+00
  0.00000000E+00  0.00000000E+00  0.00000000E+00
  0.00000000E+00  0.00000000E+00  0.00000000E+00
  0.00000000E+00  0.00000000E+00  0.00000000E+00
  0.00000000E+00  0.00000000E+00  0.00000000E+00
  0.00000000E+00  0.00000000E+00  0.00000000E+00
  0.00000000E+00  0.00000000E+00  0.00000000E+00
  0.00000000E+00  0.00000000E+00  0.00000000E+00
  0.00000000E+00  0.00000000E+00  0.00000000E+00
  0.00000000E+00  0.00000000E+00  0.00000000E+00
  0.00000000E+00  0.00000000E+00  0.00000000E+00
  0.00000000E+00  0.00000000E+00  0.00000000E+00
  0.00000000E+00  0.00000000E+00  0.00000000E+00
  0.00000000E+00  0.00000000E+00  0.00000000E+00
  0.00000000E+00  0.00000000E+00  0.00000000E+00
  0.00000000E+00  0.00000000E+00  0.00000000E+00
  0.00000000E+00  0.00000000E+00  0.00000000E+00
  0.00000000E+00  0.00000000E+00  0.00000000E+00
  0.00000000E+00  0.00000000E+00  0.00000000E+00
  0.00000000E+00  0.00000000E+00  0.00000000E+00
  0.00000000E+00  0.00000000E+00  0.00000000E+00
  0.00000000E+00  0.00000000E+00  0.00000000E+00
  0.00000000E+00  0.00000000E+00  0.00000000E+00
  0.00000000E+00  0.00000000E+00  0.00000000E+00
  0.00000000E+00  0.00000000E+00  0.00000000E+00
  0.00000000E+00  0.00000000E+00  0.00000000E+00
  0.00000000E+00  0.00000000E+00  0.00000000E+00
  0.00000000E+00  0.00000000E+00  0.00000000E+00
  0.00000000E+00  0.00000000E+00  0.00000000E+00
  0.00000000E+00  0.00000000E+00  0.00000000E+00
  0.00000000E+00  0.00000000E+00  0.00000000E+00
  0.00000000E+00  0.00000000E+00  0.00000000E+00
  0.00000000E+00  0.00000000E+00  0.00000000E+00
  0.00000000E+00  0.00000000E+00  0.00000000E+00
  0.00000000E+00  0.00000000E+00  0.00000000E+00
  0.00000000E+00  0.00000000E+00  0.00000000E+00
  0.00000000E+00  0.00000000E+00  0.00000000E+00
  0.00000000E+00  0.00000000E+00  0.00000000E+00
  0.00000000E+00  0.00000000E+00  0.00000000E+00
  0.00000000E+00  0.00000000E+00  0.00000000E+00
  0.00000000E+00  0.00000000E+00  0.00000000E+00
  0.00000000E+00  0.00000000E+00  0.00000000E+00
  0.00000000E+00  0.00000000E+00  0.00000000E+00
  0.00000000E+00  0.00000000E+00  0.00000000E+00
