Li24 P4 S20 Cl4
1.0
  10.0228067168164330    0.0000000000000000    0.0000000000000000
   0.0000000000000000   10.0228067168164330    0.0000000000000000
   0.0000000000000000    0.0000000000000000   10.0228067168164330
Li P S Cl
24 4 20 4
direct
  0.9765185881595555  0.2501300102133108  0.2501406287298517
  0.9771084413156164  0.7515007305749133  0.7512024482663345
  0.0231486497276161  0.2498413333422368  0.7502341214221809
  0.0231167080475803  0.7498045381213612  0.2500304523050355
  0.2500465373426208  0.2500880115329752  0.9771543421364494
  0.2501100420907026  0.7498870743302881  0.0231071707875056
  0.7497716016165838  0.2501177851359393  0.0231207334603991
  0.7500643677848546  0.7500549880370210  0.9765412718939350
  0.2499616535109548  0.9766832378158368  0.2502597477317018
  0.2500305997903165  0.0232236485793370  0.7502727901975166
  0.7498999351618187  0.9767876445860492  0.7498332916752971
  0.7498173296660751  0.0231890636094645  0.2500255058425099
  0.2499311999257707  0.7497320750113525  0.4767159903386524
  0.2498626643649291  0.2499945218693177  0.5235030534556226
  0.7503469308325679  0.7497968175905603  0.5229473857290117
  0.7498426236711251  0.2499171951955879  0.4767448854250589
  0.2501526261405125  0.4767365447716579  0.7501197112103521
  0.2499098852396422  0.5231618561830440  0.2501429965626745
  0.7499191496412716  0.4767176996801957  0.2498922157714010
  0.7505941502464288  0.5232632719591910  0.7495131192834528
  0.4767424147346884  0.2502091271743889  0.7502654770312571
  0.4767167754013304  0.7499406690344689  0.2498847518923487
  0.5229396836305762  0.2500384382722272  0.2500869356250388
  0.5234916186704208  0.7500766237035125  0.7498339010086927
  0.5000508019155354  0.5000197181691889  0.5001115857531537
  0.5001219752141610  0.9998828711042250  0.0000749235531488
  0.9999791698488929  0.5000425284964876  0.0000323466817737
  0.0000989276679838  0.0001439134916458  0.4999546118724036
  0.1183516761422513  0.8820742588492788  0.6178867946699604
  0.1180932881301997  0.1183595320466388  0.3817816987292977
  0.8819908008264492  0.8820528463952898  0.3817430621597362
  0.8818928305086617  0.1181492672773995  0.6180695334420652
  0.8817264169048731  0.6181813078412752  0.1179719247394023
  0.8818329262506741  0.3819001093387887  0.8818935441857061
  0.1181375115352463  0.6180311752020065  0.8818155300911250
  0.1178933087196605  0.3819390193664458  0.1182593700075687
  0.6181007454472591  0.1180601677753781  0.8818490837993158
  0.6182355310004888  0.8817316549726202  0.1180442050191969
  0.3818814904682201  0.1178401102486226  0.1182043800223255
  0.3820724065788151  0.8817526901799022  0.8818260962580591
  0.6180440881080183  0.6180695597274710  0.3817827832339933
  0.6181333922197776  0.3819230021490059  0.6181758790384089
  0.3819586904243036  0.6181777976743181  0.6182038232638267
  0.3817414016514610  0.3818881383411885  0.3821302825593240
  0.7502904529022207  0.7500139456364042  0.7497618578304066
  0.7497512622188665  0.2499326428792950  0.2499064526913257
  0.2499147977890421  0.7499383307066232  0.2499144416388121
  0.2499495608342872  0.2499879117610027  0.7503242790497924
  0.0000406706137746  0.9995367326331118  0.9992676370717297
  0.9999826202060298  0.4997009820003540  0.4994147714811481
  0.5000061211990587  0.9999752033498442  0.4998807585975928
  0.4996829579602252  0.4998016760619498  0.0001454147771202
