Li24 P4 S20 Cl4
   1.0000000000000000
     9.6414594036630490   0.0000000000000000   0.0000000000000000
     0.0000000000000000   9.6414594036630490   0.0000000000000000
     0.0000000000000000   0.0000000000000000   9.6414594036630490
   Li  P  S  Cl
   24  4  20  4
Direct
    0.9740986861310030   0.3408441667147577   0.2892478809468711
    0.9785913602485965   0.8141971003504783   0.7683122198189579
    0.0259718375086885   0.3114195593805592   0.6987576188490106
    0.0198071827079453   0.7885017428554413   0.2244231678375400
    0.1776905668462643   0.1719531339243204   0.9578338268338186
    0.2045996601258701   0.8061096383230514   0.0138325595984216
    0.8265819344820695   0.1679414459531731   0.0344846729819239
    0.7966486894045370   0.7989472868749973   0.9821176009296786
    0.2737073036795634   0.9890196536302550   0.2777246257521936
    0.3296115174302089   0.0373544666244476   0.6667110909691006
    0.6814956033549983   0.9588222387370445   0.6658374762286950
    0.7318547156872585   0.0147876070618912   0.2854640149785910
    0.1858540584817544   0.6711555986756257   0.4614908633655930
    0.2314743648111761   0.2862566423919232   0.5116530227983571
    0.8217422933528373   0.6608854991693059   0.5366466112912728
    0.7781210833385300   0.2735105929775864   0.4839109916051939
    0.2942292163401948   0.4861443528940926   0.7903740623896520
    0.3283739027640217   0.5423969250917937   0.1596689804647951
    0.6786471922580992   0.4616372256754542   0.1663196679424342
    0.7129321144044711   0.5128692655678792   0.8035142388251277
    0.4795537774579002   0.2854202425388279   0.8322380127132738
    0.4745184710547458   0.7937498074540594   0.3366023991402208
    0.5214399821719781   0.2090473147410125   0.3032517262851750
    0.5229497001167244   0.7091916465588266   0.8108425294019134
    0.5058210195597608   0.5012702895401190   0.4969741315460250
    0.5046757503141310   0.9997592273423643   0.9992773003886640
    0.0058926917842608   0.4998603353114355   0.9981165424213770
    0.0049753772403355   1.0006506422697210   0.5012675975948159
    0.1432986746963668   0.8795394194228465   0.6074145113239333
    0.1077464883977131   0.1322159042831083   0.3691151767755230
    0.8759078235720579   0.8666347203767898   0.3964676116540589
    0.8847797132464340   0.1124479780414926   0.6365675538688825
    0.8821072145054847   0.6124906674414503   0.1290906253276924
    0.8824045207686479   0.3649488456997884   0.8892895124823248
    0.1128546877366654   0.6285870584871150   0.8672073201971829
    0.1411516218737145   0.3797884092146470   0.1085889623890154
    0.6420632654903081   0.1050979682033518   0.8759862312700669
    0.6105890649197435   0.8685208819530935   0.1284552698646448
    0.3828993622792543   0.1356039429497888   0.1090615110159419
    0.3762565883866754   0.8926551263081882   0.8671758008843493
    0.6391583382977355   0.6103614373126375   0.3734353176478515
    0.6128231122581335   0.3688976313349571   0.6243983451783340
    0.3873369604332790   0.6358612906104198   0.6115623522496972
    0.3770955392589744   0.3963578480289563   0.3629748569452765
    0.7534605849858264   0.7432238338313069   0.7530397647204234
    0.7529030336494377   0.2456316002069472   0.2515313385210201
    0.2513644638809924   0.7565491203703838   0.2436259731301662
    0.2551241077287994   0.2544932646912356   0.7423631772659586
    0.0003974259042728   0.9746767756405698   0.0102999632420078
    0.0019790945524794   0.4804660692996285   0.5027884955233927
    0.5011682024239005   0.0116840231868277   0.4715133128746834
    0.5025191387952431   0.5034722280739242   0.9660291147489056