Li24 P4 S20 Cl4                         
   1.00000000000000     
     9.6367117662065951    0.0000000000000000    0.0000000000000000
     0.0000000000000000    9.6367117662065951    0.0000000000000000
     0.0000000000000000    0.0000000000000000    9.6367117662065951
   Li   P    S    Cl
    24     4    20     4
Direct
  0.9763099981708413  0.3396556456059752  0.2827472961594883
  0.9763081435899471  0.8396582095051555  0.7827457688782037
  0.0212615161677876  0.3098664717429163  0.7089193817624114
  0.0212637728951863  0.8098707947270275  0.2089154663345220
  0.1802011337236920  0.1670811450899882  0.9579906516874531
  0.2112735685870023  0.8034793573641682  0.0112065825903791
  0.8293477540161031  0.1604111785858644  0.0394096759031522
  0.7922343896412809  0.7918642910294097  0.9857439226479504
  0.2922628986417022  0.9873752273975220  0.2902178882493982
  0.3292720620731854  0.0410160162909379  0.6587539247325275
  0.6801841097689104  0.9596147072854078  0.6654697843285221
  0.7112099440587472  0.0128423570515100  0.3018537338765786
  0.1802025854268977  0.6670823624162884  0.4579878304480830
  0.2112721864526877  0.3034809539595574  0.5112093057179514
  0.8293500000385147  0.6604126718847179  0.5394079485464341
  0.7922344606206135  0.2918687868650567  0.4857452164164844
  0.2922604829761679  0.4873747253775995  0.7902170853323907
  0.3292728431932785  0.5410159145704073  0.1587537178787366
  0.6801871458526930  0.4596156375875009  0.1654696675842545
  0.7112103980245721  0.5128408256044413  0.8018498895919652
  0.4763091002738861  0.2843817769812834  0.8379807831379582
  0.4763120505806654  0.7843813213479994  0.3379750169516104
  0.5212352900703385  0.2105728938727769  0.3082693929250738
  0.5212351202460133  0.7105714605379395  0.8082685113981229
  0.5055388814537225  0.4997633817484009  0.4982563560908141
  0.5055396163797696  0.9997635356807699  0.9982558371095261
  0.0055039399713323  0.4999540203558800  0.9980358362611650
  0.0055036246942123  0.9999536341114070  0.4980341688652510
  0.1440786537963483  0.8786365853884964  0.6040141094670892
  0.1079654087455954  0.1290819520001070  0.3633603364430094
  0.8766162804966804  0.8641218005024800  0.3951277018736862
  0.8853681139253384  0.1111079282313887  0.6344008640898302
  0.8853706677227395  0.6111090163567048  0.1344023092450720
  0.8766137381947239  0.3641208182930942  0.8951301388233434
  0.1079636479193941  0.6290819516059973  0.8633590398983422
  0.1440782911063743  0.3786377127672271  0.1040140551734885
  0.6441483485865998  0.1057142408142923  0.8769839326703369
  0.6079514807349096  0.8650488747465434  0.1274025018587475
  0.3853969174011418  0.1360930853384431  0.1094497896782405
  0.3766404433580544  0.8968255940537645  0.8624576920603025
  0.6441487538659796  0.6057132022686447  0.3769849944838362
  0.6079478381834900  0.3650466818395177  0.6274029599065338
  0.3853958816103251  0.6360925304937821  0.6094498683232634
  0.3766385319807935  0.3968258473564946  0.3624578847075092
  0.7529239146144542  0.7437463899484301  0.7535822167338474
  0.7529243943749699  0.2437472033611275  0.2535838212629720
  0.2529345528113817  0.7552044882737333  0.2421062913010671
  0.2529327388713080  0.2552032665409454  0.7421087548840545
  0.0010247295237398  0.9678761455514109  0.0040155782132049
  0.0010237413389596  0.4678742670467276  0.5040184226473899
  0.5009078726864468  0.0056145608245934  0.4662111506254709
  0.5009077516605126  0.5056162454181139  0.9662118472230807
 
  0.00000000E+00  0.00000000E+00  0.00000000E+00
  0.00000000E+00  0.00000000E+00  0.00000000E+00
  0.00000000E+00  0.00000000E+00  0.00000000E+00
  0.00000000E+00  0.00000000E+00  0.00000000E+00
  0.00000000E+00  0.00000000E+00  0.00000000E+00
  0.00000000E+00  0.00000000E+00  0.00000000E+00
  0.00000000E+00  0.00000000E+00  0.00000000E+00
  0.00000000E+00  0.00000000E+00  0.00000000E+00
  0.00000000E+00  0.00000000E+00  0.00000000E+00
  0.00000000E+00  0.00000000E+00  0.00000000E+00
  0.00000000E+00  0.00000000E+00  0.00000000E+00
  0.00000000E+00  0.00000000E+00  0.00000000E+00
  0.00000000E+00  0.00000000E+00  0.00000000E+00
  0.00000000E+00  0.00000000E+00  0.00000000E+00
  0.00000000E+00  0.00000000E+00  0.00000000E+00
  0.00000000E+00  0.00000000E+00  0.00000000E+00
  0.00000000E+00  0.00000000E+00  0.00000000E+00
  0.00000000E+00  0.00000000E+00  0.00000000E+00
  0.00000000E+00  0.00000000E+00  0.00000000E+00
  0.00000000E+00  0.00000000E+00  0.00000000E+00
  0.00000000E+00  0.00000000E+00  0.00000000E+00
  0.00000000E+00  0.00000000E+00  0.00000000E+00
  0.00000000E+00  0.00000000E+00  0.00000000E+00
  0.00000000E+00  0.00000000E+00  0.00000000E+00
  0.00000000E+00  0.00000000E+00  0.00000000E+00
  0.00000000E+00  0.00000000E+00  0.00000000E+00
  0.00000000E+00  0.00000000E+00  0.00000000E+00
  0.00000000E+00  0.00000000E+00  0.00000000E+00
  0.00000000E+00  0.00000000E+00  0.00000000E+00
  0.00000000E+00  0.00000000E+00  0.00000000E+00
  0.00000000E+00  0.00000000E+00  0.00000000E+00
  0.00000000E+00  0.00000000E+00  0.00000000E+00
  0.00000000E+00  0.00000000E+00  0.00000000E+00
  0.00000000E+00  0.00000000E+00  0.00000000E+00
  0.00000000E+00  0.00000000E+00  0.00000000E+00
  0.00000000E+00  0.00000000E+00  0.00000000E+00
  0.00000000E+00  0.00000000E+00  0.00000000E+00
  0.00000000E+00  0.00000000E+00  0.00000000E+00
  0.00000000E+00  0.00000000E+00  0.00000000E+00
  0.00000000E+00  0.00000000E+00  0.00000000E+00
  0.00000000E+00  0.00000000E+00  0.00000000E+00
  0.00000000E+00  0.00000000E+00  0.00000000E+00
  0.00000000E+00  0.00000000E+00  0.00000000E+00
  0.00000000E+00  0.00000000E+00  0.00000000E+00
  0.00000000E+00  0.00000000E+00  0.00000000E+00
  0.00000000E+00  0.00000000E+00  0.00000000E+00
  0.00000000E+00  0.00000000E+00  0.00000000E+00
  0.00000000E+00  0.00000000E+00  0.00000000E+00
  0.00000000E+00  0.00000000E+00  0.00000000E+00
  0.00000000E+00  0.00000000E+00  0.00000000E+00
  0.00000000E+00  0.00000000E+00  0.00000000E+00
  0.00000000E+00  0.00000000E+00  0.00000000E+00
