Li24 P4 S20 Cl4                         
   1.00000000000000     
     9.6367117662065951    0.0000000000000000    0.0000000000000000
     0.0000000000000000    9.6367117662065951    0.0000000000000000
     0.0000000000000000    0.0000000000000000    9.6367117662065951
   Li   P    S    Cl
    24     4    20     4
Direct
  0.9763127360137034  0.3396416453614250  0.2827517076790542
  0.9763108814328092  0.8396442092606051  0.7827501803977697
  0.0212617292775619  0.3098614905035220  0.7089158997425429
  0.0212639860049606  0.8098658134876331  0.2089119843146534
  0.1801988390991411  0.1670877626725371  0.9579909781160936
  0.2112766171881120  0.8034851221456023  0.0112089740291239
  0.8293441116677371  0.1604117666583775  0.0394085784881355
  0.7922316423671489  0.7918656454165642  0.9857417849083632
  0.2922614712399891  0.9873726869671486  0.2902191027728449
  0.3292695307773386  0.0410153880345021  0.6587545279018201
  0.6801833911554240  0.9596154864022992  0.6654769154129099
  0.7112138045963547  0.0128439249842955  0.3018593612235279
  0.1802002908023468  0.6670889799988373  0.4579881568767235
  0.2112752350537974  0.3034867187409915  0.5112116971566962
  0.8293463576901487  0.6604132599572310  0.5394068511314174
  0.7922317133464816  0.2918701412522111  0.4857430786768973
  0.2922590555744549  0.4873721849472261  0.7902182998558374
  0.3292703118974316  0.5410152863139714  0.1587543210480291
  0.6801864272392066  0.4596164167043923  0.1654767986686423
  0.7112142585621797  0.5128423935372268  0.8018555169389145
  0.4763112256716866  0.2843866437183209  0.8379678332821570
  0.4763141759784659  0.7843861880850369  0.3379620670958090
  0.5212349423237583  0.2105701556252271  0.3082648435889865
  0.5212347724994331  0.7105687222903896  0.8082639620620355
  0.5055429173573387  0.4997660341653969  0.4982571101454596
  0.5055436522833858  0.9997661880977660  0.9982565911641714
  0.0055031947250370  0.4999541965529488  0.9980364158697839
  0.0055028794479171  0.9999538103084760  0.4980347484738701
  0.1440678876147246  0.8786429264297553  0.6040147336155570
  0.1079665448262048  0.1290744645057700  0.3633746304205729
  0.8766272162048878  0.8641271905358252  0.3951302426850063
  0.8853691509954515  0.1111028193213315  0.6343899259304422
  0.8853717047928527  0.6111039074466476  0.1343913710856839
  0.8766246739029313  0.3641262083264394  0.8951326796346635
  0.1079647840000035  0.6290744641116603  0.8633733338759058
  0.1440675249247505  0.3786440538084861  0.1040146793219563
  0.6441374035089282  0.1057150806103309  0.8769894515775007
  0.6079508591723908  0.8650620918765881  0.1273957850214273
  0.3853972677598634  0.1360814263612795  0.1094444959783232
  0.3766507373917207  0.8968290815802575  0.8624648959680670
  0.6441378087883081  0.6057140420646832  0.3769905133910001
  0.6079472166209712  0.3650598989695624  0.6273962430692137
  0.3853962319690467  0.6360808715166186  0.6094445746233461
  0.3766488260144598  0.3968293348829874  0.3624650886152736
  0.7529231235531384  0.7437462248932576  0.7535826029875565
  0.7529236033136542  0.2437470383059548  0.2535842075166812
  0.2529339808169411  0.7552048081509710  0.2421064802230433
  0.2529321668768674  0.2552035864181832  0.7421089438060307
  0.0010235466206865  0.9678708636710383  0.0040141346948133
  0.0010225584359063  0.4678689851663549  0.5040169791289983
  0.5009074313739532  0.0056151889311522  0.4662059631045921
  0.5009073103480191  0.5056168735246729  0.9662066597022019
 
  0.00000000E+00  0.00000000E+00  0.00000000E+00
  0.00000000E+00  0.00000000E+00  0.00000000E+00
  0.00000000E+00  0.00000000E+00  0.00000000E+00
  0.00000000E+00  0.00000000E+00  0.00000000E+00
  0.00000000E+00  0.00000000E+00  0.00000000E+00
  0.00000000E+00  0.00000000E+00  0.00000000E+00
  0.00000000E+00  0.00000000E+00  0.00000000E+00
  0.00000000E+00  0.00000000E+00  0.00000000E+00
  0.00000000E+00  0.00000000E+00  0.00000000E+00
  0.00000000E+00  0.00000000E+00  0.00000000E+00
  0.00000000E+00  0.00000000E+00  0.00000000E+00
  0.00000000E+00  0.00000000E+00  0.00000000E+00
  0.00000000E+00  0.00000000E+00  0.00000000E+00
  0.00000000E+00  0.00000000E+00  0.00000000E+00
  0.00000000E+00  0.00000000E+00  0.00000000E+00
  0.00000000E+00  0.00000000E+00  0.00000000E+00
  0.00000000E+00  0.00000000E+00  0.00000000E+00
  0.00000000E+00  0.00000000E+00  0.00000000E+00
  0.00000000E+00  0.00000000E+00  0.00000000E+00
  0.00000000E+00  0.00000000E+00  0.00000000E+00
  0.00000000E+00  0.00000000E+00  0.00000000E+00
  0.00000000E+00  0.00000000E+00  0.00000000E+00
  0.00000000E+00  0.00000000E+00  0.00000000E+00
  0.00000000E+00  0.00000000E+00  0.00000000E+00
  0.00000000E+00  0.00000000E+00  0.00000000E+00
  0.00000000E+00  0.00000000E+00  0.00000000E+00
  0.00000000E+00  0.00000000E+00  0.00000000E+00
  0.00000000E+00  0.00000000E+00  0.00000000E+00
  0.00000000E+00  0.00000000E+00  0.00000000E+00
  0.00000000E+00  0.00000000E+00  0.00000000E+00
  0.00000000E+00  0.00000000E+00  0.00000000E+00
  0.00000000E+00  0.00000000E+00  0.00000000E+00
  0.00000000E+00  0.00000000E+00  0.00000000E+00
  0.00000000E+00  0.00000000E+00  0.00000000E+00
  0.00000000E+00  0.00000000E+00  0.00000000E+00
  0.00000000E+00  0.00000000E+00  0.00000000E+00
  0.00000000E+00  0.00000000E+00  0.00000000E+00
  0.00000000E+00  0.00000000E+00  0.00000000E+00
  0.00000000E+00  0.00000000E+00  0.00000000E+00
  0.00000000E+00  0.00000000E+00  0.00000000E+00
  0.00000000E+00  0.00000000E+00  0.00000000E+00
  0.00000000E+00  0.00000000E+00  0.00000000E+00
  0.00000000E+00  0.00000000E+00  0.00000000E+00
  0.00000000E+00  0.00000000E+00  0.00000000E+00
  0.00000000E+00  0.00000000E+00  0.00000000E+00
  0.00000000E+00  0.00000000E+00  0.00000000E+00
  0.00000000E+00  0.00000000E+00  0.00000000E+00
  0.00000000E+00  0.00000000E+00  0.00000000E+00
  0.00000000E+00  0.00000000E+00  0.00000000E+00
  0.00000000E+00  0.00000000E+00  0.00000000E+00
  0.00000000E+00  0.00000000E+00  0.00000000E+00
  0.00000000E+00  0.00000000E+00  0.00000000E+00
