Li24 P4 S20 Cl4                         
   1.00000000000000     
     9.8603047208312891    0.0000000000000000    0.0000000000000000
     0.0000000000000000    9.8603047208312891    0.0000000000000000
     0.0000000000000000    0.0000000000000000    9.8603047208312891
   Li   P    S    Cl
    24     4    20     4
Direct
  0.9510842843388662  0.2500672030423061  0.2500672030423061
  0.0006547583604847  0.7500672030423061  0.7500672030423061
  0.0164744760864492  0.2500672030423061  0.7500672030423061
  0.0164744760864492  0.7500672030423061  0.2500672030423061
  0.2957632411906638  0.3103849835792985  0.9746645201291170
  0.1939784654345656  0.8103452036658613  0.0254692357678614
  0.6822445979087789  0.2861710118570753  0.0209863161114006
  0.8075099059037110  0.7862300432389512  0.9791662600522190
  0.2957632411906638  0.9746645201291241  0.3103849835792417
  0.1939784654345656  0.0254692357678259  0.8103452036658613
  0.8075099059037110  0.9791662600522474  0.7862300432389441
  0.6822445979087789  0.0209863161114148  0.2861710118571108
  0.1939784654345585  0.6897892024187510  0.4746651703167863
  0.2957632411906638  0.1897494225053777  0.5254698859554882
  0.8075099059037110  0.7139043628456682  0.5209681460323649
  0.6822445979087789  0.2139633942275014  0.4791480899732116
  0.1939784654345656  0.4746651703167579  0.6897892024187510
  0.2957632411906638  0.5254698859554953  0.1897494225053137
  0.6822445979087789  0.4791480899732258  0.2139633942275370
  0.8075099059037110  0.5209681460323933  0.7139043628456682
  0.4733364993394800  0.2500672030423061  0.7500672030423061
  0.4733364993394800  0.7500672030423061  0.2500672030423061
  0.4890989713861818  0.2500672030423061  0.2500672030423061
  0.5386654435804256  0.7500672030423061  0.7500672030423061
  0.4912721193072877  0.5080092877641018  0.5080092877641231
  0.4912721193072877  0.9921251183204820  0.9921251183205033
  0.9982919690156831  0.4921012815102609  0.0080331245743514
  0.9982919690156831  0.0080331245743940  0.4921012815102183
  0.1318393781392179  0.8952476982929525  0.6048867077916598
  0.1151737654227317  0.1292694334960512  0.3708649725885469
  0.8728632199659269  0.8904904801991826  0.3730061530884966
  0.8728632199659269  0.1271282529961228  0.6096439258854296
  0.8728632199659269  0.6096439258854296  0.1271282529960944
  0.8728632199659269  0.3730061530885250  0.8904904801991826
  0.1318393781392179  0.6048867077916598  0.8952476982929525
  0.1151737654227317  0.3708649725885682  0.1292694334960441
  0.6167967819168394  0.1096177243859743  0.8730487040864061
  0.6167967819168394  0.8730487040864274  0.1096177243859458
  0.3577679053030291  0.1049130499873293  0.1049130499873577
  0.3745007798505198  0.8708456787865921  0.8708456787866063
  0.6167967819168394  0.6270857019982061  0.3905166816986380
  0.6167967819168394  0.3905166816986664  0.6270857019981848
  0.3745007798505198  0.6292887272980059  0.6292887272980201
  0.3577679053030291  0.3952213560972688  0.3952213560972901
  0.7669581343214373  0.7500672030423061  0.7500672030423061
  0.7228156844878606  0.2500672030423061  0.2500672030423061
  0.2448983207426854  0.7500672030423061  0.2500672030423061
  0.2448983207426854  0.2500672030423061  0.7500672030423061
  0.0007400603110185  0.9533802624573529  0.9533802624573031
  0.0007400603110185  0.5467541436273091  0.5467541436272594
  0.4890415376532220  0.0468352506394875  0.4532991554451247
  0.4890415376532220  0.4532991554451531  0.0468352506394662
 
  0.00000000E+00  0.00000000E+00  0.00000000E+00
  0.00000000E+00  0.00000000E+00  0.00000000E+00
  0.00000000E+00  0.00000000E+00  0.00000000E+00
  0.00000000E+00  0.00000000E+00  0.00000000E+00
  0.00000000E+00  0.00000000E+00  0.00000000E+00
  0.00000000E+00  0.00000000E+00  0.00000000E+00
  0.00000000E+00  0.00000000E+00  0.00000000E+00
  0.00000000E+00  0.00000000E+00  0.00000000E+00
  0.00000000E+00  0.00000000E+00  0.00000000E+00
  0.00000000E+00  0.00000000E+00  0.00000000E+00
  0.00000000E+00  0.00000000E+00  0.00000000E+00
  0.00000000E+00  0.00000000E+00  0.00000000E+00
  0.00000000E+00  0.00000000E+00  0.00000000E+00
  0.00000000E+00  0.00000000E+00  0.00000000E+00
  0.00000000E+00  0.00000000E+00  0.00000000E+00
  0.00000000E+00  0.00000000E+00  0.00000000E+00
  0.00000000E+00  0.00000000E+00  0.00000000E+00
  0.00000000E+00  0.00000000E+00  0.00000000E+00
  0.00000000E+00  0.00000000E+00  0.00000000E+00
  0.00000000E+00  0.00000000E+00  0.00000000E+00
  0.00000000E+00  0.00000000E+00  0.00000000E+00
  0.00000000E+00  0.00000000E+00  0.00000000E+00
  0.00000000E+00  0.00000000E+00  0.00000000E+00
  0.00000000E+00  0.00000000E+00  0.00000000E+00
  0.00000000E+00  0.00000000E+00  0.00000000E+00
  0.00000000E+00  0.00000000E+00  0.00000000E+00
  0.00000000E+00  0.00000000E+00  0.00000000E+00
  0.00000000E+00  0.00000000E+00  0.00000000E+00
  0.00000000E+00  0.00000000E+00  0.00000000E+00
  0.00000000E+00  0.00000000E+00  0.00000000E+00
  0.00000000E+00  0.00000000E+00  0.00000000E+00
  0.00000000E+00  0.00000000E+00  0.00000000E+00
  0.00000000E+00  0.00000000E+00  0.00000000E+00
  0.00000000E+00  0.00000000E+00  0.00000000E+00
  0.00000000E+00  0.00000000E+00  0.00000000E+00
  0.00000000E+00  0.00000000E+00  0.00000000E+00
  0.00000000E+00  0.00000000E+00  0.00000000E+00
  0.00000000E+00  0.00000000E+00  0.00000000E+00
  0.00000000E+00  0.00000000E+00  0.00000000E+00
  0.00000000E+00  0.00000000E+00  0.00000000E+00
  0.00000000E+00  0.00000000E+00  0.00000000E+00
  0.00000000E+00  0.00000000E+00  0.00000000E+00
  0.00000000E+00  0.00000000E+00  0.00000000E+00
  0.00000000E+00  0.00000000E+00  0.00000000E+00
  0.00000000E+00  0.00000000E+00  0.00000000E+00
  0.00000000E+00  0.00000000E+00  0.00000000E+00
  0.00000000E+00  0.00000000E+00  0.00000000E+00
  0.00000000E+00  0.00000000E+00  0.00000000E+00
  0.00000000E+00  0.00000000E+00  0.00000000E+00
  0.00000000E+00  0.00000000E+00  0.00000000E+00
  0.00000000E+00  0.00000000E+00  0.00000000E+00
  0.00000000E+00  0.00000000E+00  0.00000000E+00
