Li24 P4 S20 Cl4                         
   1.00000000000000     
     9.8603047208312891    0.0000000000000000    0.0000000000000000
     0.0000000000000000    9.8603047208312891    0.0000000000000000
     0.0000000000000000    0.0000000000000000    9.8603047208312891
   Li   P    S    Cl
    24     4    20     4
Direct
  0.9511055386878198  0.2500672030423061  0.2500672030423061
  0.0006447451860225  0.7500672030423061  0.7500672030423061
  0.0164719895709737  0.2500672030423061  0.7500672030423061
  0.0164719895709737  0.7500672030423061  0.2500672030423061
  0.2957628105768180  0.3103818992105332  0.9746651182782031
  0.1939786878386514  0.8103405226951850  0.0254685078147361
  0.6822519619946874  0.2861633690961440  0.0209891971603398
  0.8075015202340197  0.7862228910893236  0.9791638027181833
  0.2957628105768180  0.9746651182782102  0.3103818992104763
  0.1939786878386514  0.0254685078147006  0.8103405226951850
  0.8075015202340197  0.9791638027182117  0.7862228910893165
  0.6822519619946874  0.0209891971603540  0.2861633690961796
  0.1939786878386442  0.6897938833894273  0.4746658982699117
  0.2957628105768180  0.1897525068741430  0.5254692878064020
  0.8075015202340197  0.7139115149952957  0.5209706033664006
  0.6822519619946874  0.2139710369884327  0.4791452089242725
  0.1939786878386514  0.4746658982698833  0.6897938833894273
  0.2957628105768180  0.5254692878064091  0.1897525068740791
  0.6822519619946874  0.4791452089242867  0.2139710369884682
  0.8075015202340197  0.5209706033664290  0.7139115149952957
  0.4733376654412780  0.2500672030423061  0.7500672030423061
  0.4733376654412780  0.7500672030423061  0.2500672030423061
  0.4891080178346030  0.2500672030423061  0.2500672030423061
  0.5386423115645798  0.7500672030423061  0.7500672030423061
  0.4912746065476483  0.5080198214795359  0.5080198214795573
  0.4912746065476483  0.9921145846050479  0.9921145846050692
  0.9982910080077687  0.4920933964901266  0.0080410095944856
  0.9982910080077687  0.0080410095945282  0.4920933964900840
  0.1318093400459333  0.8952649965661266  0.6048694095184857
  0.1151619390193304  0.1292557426660892  0.3708786634185088
  0.8728881375577444  0.8904992750856522  0.3730307637805907
  0.8728881375577444  0.1271036423040286  0.6096351309989601
  0.8728881375577444  0.6096351309989601  0.1271036423040002
  0.8728881375577444  0.3730307637806192  0.8904992750856522
  0.1318093400459333  0.6048694095184857  0.8952649965661266
  0.1151619390193304  0.3708786634185302  0.1292557426660821
  0.6167730737227188  0.1096107499218775  0.8730716448205129
  0.6167730737227188  0.8730716448205342  0.1096107499218490
  0.3577985121490599  0.1048951325725085  0.1048951325725369
  0.3745148763005020  0.8708622223322990  0.8708622223323133
  0.6167730737227188  0.6270627612640993  0.3905236561627348
  0.6167730737227188  0.3905236561627632  0.6270627612640780
  0.3745148763005020  0.6292721837522990  0.6292721837523132
  0.3577985121490599  0.3952392735120895  0.3952392735121109
  0.7669651300508420  0.7500672030423061  0.7500672030423061
  0.7228079482124201  0.2500672030423061  0.2500672030423061
  0.2448979783420810  0.7500672030423061  0.2500672030423061
  0.2448979783420810  0.2500672030423061  0.7500672030423061
  0.0007356768936617  0.9533668820414505  0.9533668820414007
  0.0007356768936617  0.5467675240432115  0.5467675240431618
  0.4890450521142640  0.0468479856470196  0.4532864204375926
  0.4890450521142640  0.4532864204376210  0.0468479856469983
 
  0.00000000E+00  0.00000000E+00  0.00000000E+00
  0.00000000E+00  0.00000000E+00  0.00000000E+00
  0.00000000E+00  0.00000000E+00  0.00000000E+00
  0.00000000E+00  0.00000000E+00  0.00000000E+00
  0.00000000E+00  0.00000000E+00  0.00000000E+00
  0.00000000E+00  0.00000000E+00  0.00000000E+00
  0.00000000E+00  0.00000000E+00  0.00000000E+00
  0.00000000E+00  0.00000000E+00  0.00000000E+00
  0.00000000E+00  0.00000000E+00  0.00000000E+00
  0.00000000E+00  0.00000000E+00  0.00000000E+00
  0.00000000E+00  0.00000000E+00  0.00000000E+00
  0.00000000E+00  0.00000000E+00  0.00000000E+00
  0.00000000E+00  0.00000000E+00  0.00000000E+00
  0.00000000E+00  0.00000000E+00  0.00000000E+00
  0.00000000E+00  0.00000000E+00  0.00000000E+00
  0.00000000E+00  0.00000000E+00  0.00000000E+00
  0.00000000E+00  0.00000000E+00  0.00000000E+00
  0.00000000E+00  0.00000000E+00  0.00000000E+00
  0.00000000E+00  0.00000000E+00  0.00000000E+00
  0.00000000E+00  0.00000000E+00  0.00000000E+00
  0.00000000E+00  0.00000000E+00  0.00000000E+00
  0.00000000E+00  0.00000000E+00  0.00000000E+00
  0.00000000E+00  0.00000000E+00  0.00000000E+00
  0.00000000E+00  0.00000000E+00  0.00000000E+00
  0.00000000E+00  0.00000000E+00  0.00000000E+00
  0.00000000E+00  0.00000000E+00  0.00000000E+00
  0.00000000E+00  0.00000000E+00  0.00000000E+00
  0.00000000E+00  0.00000000E+00  0.00000000E+00
  0.00000000E+00  0.00000000E+00  0.00000000E+00
  0.00000000E+00  0.00000000E+00  0.00000000E+00
  0.00000000E+00  0.00000000E+00  0.00000000E+00
  0.00000000E+00  0.00000000E+00  0.00000000E+00
  0.00000000E+00  0.00000000E+00  0.00000000E+00
  0.00000000E+00  0.00000000E+00  0.00000000E+00
  0.00000000E+00  0.00000000E+00  0.00000000E+00
  0.00000000E+00  0.00000000E+00  0.00000000E+00
  0.00000000E+00  0.00000000E+00  0.00000000E+00
  0.00000000E+00  0.00000000E+00  0.00000000E+00
  0.00000000E+00  0.00000000E+00  0.00000000E+00
  0.00000000E+00  0.00000000E+00  0.00000000E+00
  0.00000000E+00  0.00000000E+00  0.00000000E+00
  0.00000000E+00  0.00000000E+00  0.00000000E+00
  0.00000000E+00  0.00000000E+00  0.00000000E+00
  0.00000000E+00  0.00000000E+00  0.00000000E+00
  0.00000000E+00  0.00000000E+00  0.00000000E+00
  0.00000000E+00  0.00000000E+00  0.00000000E+00
  0.00000000E+00  0.00000000E+00  0.00000000E+00
  0.00000000E+00  0.00000000E+00  0.00000000E+00
  0.00000000E+00  0.00000000E+00  0.00000000E+00
  0.00000000E+00  0.00000000E+00  0.00000000E+00
  0.00000000E+00  0.00000000E+00  0.00000000E+00
  0.00000000E+00  0.00000000E+00  0.00000000E+00
