Li24 P4 S20 Cl4                         
   1.00000000000000     
     9.7084090244146921    0.0000000000000000    0.0000000000000000
     0.0000000000000000    9.7084090244146921    0.0000000000000000
     0.0000000000000000    0.0000000000000000    9.7084090244146921
   Li   P    S    Cl
    24     4    20     4
Direct
  0.9830121341032720  0.2850017871826753  0.2971228913819626
  0.9830121341032720  0.7971228913820052  0.7850017871826754
  0.0259707433669002  0.2656819908148732  0.7656819908149156
  0.0266934686291407  0.7339921247029715  0.2339921247030141
  0.3070506697373548  0.2874149024984562  0.9736781428676340
  0.3100861823716692  0.7007745686802780  0.0091099222611606
  0.6716612278544137  0.3166282162976301  0.0397974272656926
  0.7902587317728850  0.8016992000026012  0.9744746579928723
  0.1867971810131874  0.9617094700159187  0.1678624886820829
  0.1972062635098007  0.0192001403218239  0.8051105728291154
  0.7274804988643002  0.9834072623114984  0.7032565164194688
  0.8269507005699429  0.0320673686896386  0.1743943031383710
  0.1867971810131874  0.6678624886820687  0.4617094700158831
  0.1972062635098007  0.3051105728291082  0.5192001403218524
  0.8269507005699429  0.6743943031384705  0.5320673686895747
  0.7274804988642931  0.2032565164195611  0.4834072623114772
  0.3070506697373691  0.4736781428675701  0.7874149024984278
  0.3100861823716763  0.5091099222612104  0.2007745686802708
  0.7902587317729063  0.4744746579928579  0.3016992000026084
  0.6716612278544351  0.5397974272656358  0.8166282162976515
  0.4739334270030784  0.1827256958174268  0.6827256958174339
  0.4719099771188606  0.8215577030370774  0.3215577030370276
  0.5272183723899422  0.1657666359002691  0.3023110573977474
  0.5272183723899422  0.8023110573978042  0.6657666359002621
  0.5060103209951026  0.4946960650071036  0.4969599738438953
  0.5060103209951097  0.9969599738438882  0.9946960650071035
  0.9923460483871189  0.4950231619250154  0.9950231619249585
  0.0174338804403569  0.9914725582248578  0.4914725582248505
  0.1386345778886194  0.8667734672581145  0.6107312671060613
  0.1386345778886194  0.1107312671060543  0.3667734672582069
  0.8846049651362928  0.8753481697157521  0.3753481697158372
  0.9061155909521357  0.1196576469304297  0.6196576469304083
  0.8632467338296606  0.6138044630395938  0.1138044630394942
  0.8570649465997441  0.3805893547384614  0.8805893547384189
  0.1173421044688835  0.6116497914005894  0.8702308325948330
  0.1173421044688835  0.3702308325948188  0.1116497914005324
  0.6271598496582236  0.1261632120809241  0.8802881433048587
  0.6234999498510830  0.8823854619192518  0.1276344968442527
  0.3758406655418214  0.1100672901472947  0.1178789928810647
  0.3906944378468223  0.8771073608890807  0.8637409040876982
  0.6234999498510688  0.6276344968442952  0.3823854619193371
  0.6271598496582236  0.3802881433049013  0.6261632120808672
  0.3758406655418214  0.6178789928810929  0.6100672901472165
  0.3906944378468223  0.3637409040876697  0.3771073608891092
  0.7510741285354841  0.7534764114879994  0.7456195170758164
  0.7510741285354841  0.2456195170757738  0.2534764114880704
  0.2598439176479282  0.7406054322716448  0.2406054322716660
  0.2547088914511638  0.2453712210352300  0.7453712210352941
  0.0016828078876817  0.9608762215961897  0.9918395606413741
  0.0016828078876959  0.4918395606414095  0.4608762215962039
  0.5425033256340895  0.0119267358540478  0.5119267358540548
  0.4673464477834089  0.4862670322890175  0.9862670322890743
 
  0.00000000E+00  0.00000000E+00  0.00000000E+00
  0.00000000E+00  0.00000000E+00  0.00000000E+00
  0.00000000E+00  0.00000000E+00  0.00000000E+00
  0.00000000E+00  0.00000000E+00  0.00000000E+00
  0.00000000E+00  0.00000000E+00  0.00000000E+00
  0.00000000E+00  0.00000000E+00  0.00000000E+00
  0.00000000E+00  0.00000000E+00  0.00000000E+00
  0.00000000E+00  0.00000000E+00  0.00000000E+00
  0.00000000E+00  0.00000000E+00  0.00000000E+00
  0.00000000E+00  0.00000000E+00  0.00000000E+00
  0.00000000E+00  0.00000000E+00  0.00000000E+00
  0.00000000E+00  0.00000000E+00  0.00000000E+00
  0.00000000E+00  0.00000000E+00  0.00000000E+00
  0.00000000E+00  0.00000000E+00  0.00000000E+00
  0.00000000E+00  0.00000000E+00  0.00000000E+00
  0.00000000E+00  0.00000000E+00  0.00000000E+00
  0.00000000E+00  0.00000000E+00  0.00000000E+00
  0.00000000E+00  0.00000000E+00  0.00000000E+00
  0.00000000E+00  0.00000000E+00  0.00000000E+00
  0.00000000E+00  0.00000000E+00  0.00000000E+00
  0.00000000E+00  0.00000000E+00  0.00000000E+00
  0.00000000E+00  0.00000000E+00  0.00000000E+00
  0.00000000E+00  0.00000000E+00  0.00000000E+00
  0.00000000E+00  0.00000000E+00  0.00000000E+00
  0.00000000E+00  0.00000000E+00  0.00000000E+00
  0.00000000E+00  0.00000000E+00  0.00000000E+00
  0.00000000E+00  0.00000000E+00  0.00000000E+00
  0.00000000E+00  0.00000000E+00  0.00000000E+00
  0.00000000E+00  0.00000000E+00  0.00000000E+00
  0.00000000E+00  0.00000000E+00  0.00000000E+00
  0.00000000E+00  0.00000000E+00  0.00000000E+00
  0.00000000E+00  0.00000000E+00  0.00000000E+00
  0.00000000E+00  0.00000000E+00  0.00000000E+00
  0.00000000E+00  0.00000000E+00  0.00000000E+00
  0.00000000E+00  0.00000000E+00  0.00000000E+00
  0.00000000E+00  0.00000000E+00  0.00000000E+00
  0.00000000E+00  0.00000000E+00  0.00000000E+00
  0.00000000E+00  0.00000000E+00  0.00000000E+00
  0.00000000E+00  0.00000000E+00  0.00000000E+00
  0.00000000E+00  0.00000000E+00  0.00000000E+00
  0.00000000E+00  0.00000000E+00  0.00000000E+00
  0.00000000E+00  0.00000000E+00  0.00000000E+00
  0.00000000E+00  0.00000000E+00  0.00000000E+00
  0.00000000E+00  0.00000000E+00  0.00000000E+00
  0.00000000E+00  0.00000000E+00  0.00000000E+00
  0.00000000E+00  0.00000000E+00  0.00000000E+00
  0.00000000E+00  0.00000000E+00  0.00000000E+00
  0.00000000E+00  0.00000000E+00  0.00000000E+00
  0.00000000E+00  0.00000000E+00  0.00000000E+00
  0.00000000E+00  0.00000000E+00  0.00000000E+00
  0.00000000E+00  0.00000000E+00  0.00000000E+00
  0.00000000E+00  0.00000000E+00  0.00000000E+00
