Li24 P4 S20 Cl4                         
   1.00000000000000     
     9.7084090244146921    0.0000000000000000    0.0000000000000000
     0.0000000000000000    9.7084090244146921    0.0000000000000000
     0.0000000000000000    0.0000000000000000    9.7084090244146921
   Li   P    S    Cl
    24     4    20     4
Direct
  0.9830095205411880  0.2850029579116296  0.2971181078368730
  0.9830095205411880  0.7971181078369156  0.7850029579116296
  0.0259689661098363  0.2656778834242175  0.7656778834242601
  0.0266952627717743  0.7339935913968247  0.2339935913968674
  0.3070513350227912  0.2874138264363992  0.9736790363493455
  0.3100897006763930  0.7007753315533449  0.0091143087904726
  0.6716757585103394  0.3166192393061351  0.0397906191747239
  0.7902560376235215  0.8016930682777996  0.9744732586580156
  0.1868013991127526  0.9617105991802219  0.1678659197965615
  0.1972070811773179  0.0192002313431630  0.8050997268758593
  0.7274764246522949  0.9834047348670154  0.7032572257610354
  0.8269467756726172  0.0320622379538165  0.1743998019704947
  0.1868013991127526  0.6678659197965473  0.4617105991801864
  0.1972070811773179  0.3050997268758522  0.5192002313431914
  0.8269467756726172  0.6743998019705941  0.5320622379537525
  0.7274764246522878  0.2032572257611278  0.4834047348669941
  0.3070513350228055  0.4736790363492815  0.7874138264363708
  0.3100897006764001  0.5091143087905223  0.2007753315533378
  0.7902560376235428  0.4744732586580014  0.3016930682778067
  0.6716757585103608  0.5397906191746671  0.8166192393061564
  0.4739281521162013  0.1827266321096559  0.6827266321096630
  0.4719187744966575  0.8215467682682345  0.3215467682681847
  0.5272140661068647  0.1657800850181417  0.3023151272321911
  0.5272140661068647  0.8023151272322480  0.6657800850181346
  0.5060083787256886  0.4946986794920676  0.4969610901580381
  0.5060083787256957  0.9969610901580310  0.9946986794920676
  0.9923535239120866  0.4950247362111710  0.9950247362111142
  0.0174299086782383  0.9914738655966957  0.4914738655966886
  0.1386171458986780  0.8667826031880210  0.6107249379018711
  0.1386171458986780  0.1107249379018640  0.3667826031881134
  0.8846124967158104  0.8753583037222583  0.3753583037223436
  0.9061125905309027  0.1196461870566665  0.6196461870566452
  0.8632671569630688  0.6137983651421877  0.1137983651420882
  0.8570894503104540  0.3805963488134694  0.8805963488134267
  0.1173414525223109  0.6116430953341663  0.8702460370481830
  0.1173414525223109  0.3702460370481688  0.1116430953341094
  0.6271448751976720  0.1261522095436192  0.8802948611879202
  0.6234935792138288  0.8823924320948109  0.1276178087484041
  0.3758516489480499  0.1100623238992782  0.1178736701958698
  0.3906958331967445  0.8771198264634279  0.8637578527008003
  0.6234935792138145  0.6276178087484467  0.3823924320948962
  0.6271448751976720  0.3802948611879629  0.6261522095435623
  0.3758516489480499  0.6178736701958982  0.6100623238992000
  0.3906958331967445  0.3637578527007719  0.3771198264634563
  0.7510736382032803  0.7534779852583995  0.7456171690077937
  0.7510736382032803  0.2456171690077511  0.2534779852584705
  0.2598446683946420  0.7406059445643507  0.2406059445643720
  0.2547039806510440  0.2453749971193204  0.7453749971193844
  0.0016799799814180  0.9608598935077595  0.9918491742602242
  0.0016799799814322  0.4918491742602598  0.4608598935077737
  0.5425079023747656  0.0119358493399631  0.5119358493399702
  0.4673418777078737  0.4862632256507879  0.9862632256508448
 
  0.00000000E+00  0.00000000E+00  0.00000000E+00
  0.00000000E+00  0.00000000E+00  0.00000000E+00
  0.00000000E+00  0.00000000E+00  0.00000000E+00
  0.00000000E+00  0.00000000E+00  0.00000000E+00
  0.00000000E+00  0.00000000E+00  0.00000000E+00
  0.00000000E+00  0.00000000E+00  0.00000000E+00
  0.00000000E+00  0.00000000E+00  0.00000000E+00
  0.00000000E+00  0.00000000E+00  0.00000000E+00
  0.00000000E+00  0.00000000E+00  0.00000000E+00
  0.00000000E+00  0.00000000E+00  0.00000000E+00
  0.00000000E+00  0.00000000E+00  0.00000000E+00
  0.00000000E+00  0.00000000E+00  0.00000000E+00
  0.00000000E+00  0.00000000E+00  0.00000000E+00
  0.00000000E+00  0.00000000E+00  0.00000000E+00
  0.00000000E+00  0.00000000E+00  0.00000000E+00
  0.00000000E+00  0.00000000E+00  0.00000000E+00
  0.00000000E+00  0.00000000E+00  0.00000000E+00
  0.00000000E+00  0.00000000E+00  0.00000000E+00
  0.00000000E+00  0.00000000E+00  0.00000000E+00
  0.00000000E+00  0.00000000E+00  0.00000000E+00
  0.00000000E+00  0.00000000E+00  0.00000000E+00
  0.00000000E+00  0.00000000E+00  0.00000000E+00
  0.00000000E+00  0.00000000E+00  0.00000000E+00
  0.00000000E+00  0.00000000E+00  0.00000000E+00
  0.00000000E+00  0.00000000E+00  0.00000000E+00
  0.00000000E+00  0.00000000E+00  0.00000000E+00
  0.00000000E+00  0.00000000E+00  0.00000000E+00
  0.00000000E+00  0.00000000E+00  0.00000000E+00
  0.00000000E+00  0.00000000E+00  0.00000000E+00
  0.00000000E+00  0.00000000E+00  0.00000000E+00
  0.00000000E+00  0.00000000E+00  0.00000000E+00
  0.00000000E+00  0.00000000E+00  0.00000000E+00
  0.00000000E+00  0.00000000E+00  0.00000000E+00
  0.00000000E+00  0.00000000E+00  0.00000000E+00
  0.00000000E+00  0.00000000E+00  0.00000000E+00
  0.00000000E+00  0.00000000E+00  0.00000000E+00
  0.00000000E+00  0.00000000E+00  0.00000000E+00
  0.00000000E+00  0.00000000E+00  0.00000000E+00
  0.00000000E+00  0.00000000E+00  0.00000000E+00
  0.00000000E+00  0.00000000E+00  0.00000000E+00
  0.00000000E+00  0.00000000E+00  0.00000000E+00
  0.00000000E+00  0.00000000E+00  0.00000000E+00
  0.00000000E+00  0.00000000E+00  0.00000000E+00
  0.00000000E+00  0.00000000E+00  0.00000000E+00
  0.00000000E+00  0.00000000E+00  0.00000000E+00
  0.00000000E+00  0.00000000E+00  0.00000000E+00
  0.00000000E+00  0.00000000E+00  0.00000000E+00
  0.00000000E+00  0.00000000E+00  0.00000000E+00
  0.00000000E+00  0.00000000E+00  0.00000000E+00
  0.00000000E+00  0.00000000E+00  0.00000000E+00
  0.00000000E+00  0.00000000E+00  0.00000000E+00
  0.00000000E+00  0.00000000E+00  0.00000000E+00
