Li24 P4 S20 Cl4
   1.0000000000000000
     9.6462070411195029   0.0000000000000000   0.0000000000000000
     0.0000000000000000   9.6462070411195029   0.0000000000000000
     0.0000000000000000   0.0000000000000000   9.6462070411195029
   Li  P  S  Cl
   24  4  20  4
Direct
    0.9718873740911648   0.3420326878235401   0.2957484657342540
    0.9808745769072459   0.7887359911958012   0.7538786707597122
    0.0306821588495894   0.3129726470182020   0.6885958559356097
    0.0183505925207043   0.7671326909838551   0.2399308693405580
    0.1751799999688367   0.1768251227586525   0.9576770019801841
    0.1979257516647379   0.8087399192819347   0.0164585366064642
    0.8238161149480361   0.1754717133204818   0.0295596700606956
    0.8010629891677932   0.8060302827205847   0.9784912792114068
    0.2551517087174247   0.9906640798629880   0.2652313632549890
    0.3299509727872324   0.0336929169579573   0.6746682572056738
    0.6828070969410862   0.9580297701886813   0.6662051681288679
    0.7524994873157698   0.0167328570722724   0.2690742960806035
    0.1915055315366110   0.6752288349349629   0.4649938962831030
    0.2516765431696646   0.2690323308242890   0.5120967398787627
    0.8141345866671600   0.6613583264538939   0.5338852740361115
    0.7640077060564465   0.2551523990901161   0.4820767667939033
    0.2961979497042218   0.4849139804105857   0.7905310394469134
    0.3274749623347650   0.5437779356131801   0.1605842430508536
    0.6771072386635053   0.4636588137634075   0.1671696683006138
    0.7146538307843701   0.5128977055313170   0.8051785880582903
    0.4827984546419144   0.2864587080963722   0.8264952422885894
    0.4727248915288261   0.8031182935601193   0.3352297813288312
    0.5216446742736177   0.2075217356092481   0.2982340596452762
    0.5246642799874356   0.7078118325797137   0.8134165474057038
    0.5061031576657992   0.5027771973318370   0.4956919070012360
    0.5038118842484923   0.9997549190039587   1.0002987636678018
    0.0062814435971893   0.4997666502669910   0.9981972485815892
    0.0044471297864587   1.0013476504280350   0.5045010263243808
    0.1425186955963852   0.8804422534571965   0.6108149131807775
    0.1075275680498307   0.1353498565661097   0.3748700171080365
    0.8751993666474354   0.8691476402510995   0.3978075214344317
    0.8841913125675295   0.1137880278515966   0.6387342436479349
    0.8788437612882298   0.6138723185261957   0.1237789414103129
    0.8881953033425720   0.3657768731064825   0.8834488861413061
    0.1177457275539366   0.6280921653682329   0.8710556004960238
    0.1382249526410547   0.3809391056620670   0.1131638696045423
    0.6399781823940165   0.1044816955924112   0.8749885298697968
    0.6132266491045775   0.8719928891596437   0.1295080378705421
    0.3804018071573668   0.1351148005611345   0.1086732323536433
    0.3758727334152963   0.8884846585626121   0.8718939097083961
    0.6341679227294914   0.6150096723566302   0.3698856408118668
    0.6176983863327770   0.3727485808303964   0.6213937304501344
    0.3892780392562329   0.6356300507270577   0.6136748361761312
    0.3775525465371554   0.3958898487014180   0.3634918291830437
    0.7539972553571984   0.7427012777141835   0.7524973127069996
    0.7528816729239053   0.2475159970527670   0.2494788557790681
    0.2497943749506031   0.7578937524670343   0.2451456549592654
    0.2573154765862908   0.2537832628415257   0.7426175996478627
   -0.0002298777151943   0.9814774057297286   0.0165843482708106
    0.0029344477659992   0.4930578715525294   0.5015585683993954
    0.5014285321613543   0.0177534855490620   0.4768154751238959
    0.5041305259299735   0.5013282107297345   0.9658463822747305