Li24 P4 S20 Cl4                         
   1.00000000000000     
     9.6477607036356190    0.0000000000000000    0.0000000000000000
     0.0000000000000000    9.6477607036356190    0.0000000000000000
     0.0000000000000000    0.0000000000000000    9.6477607036356190
   Li   P    S    Cl
    24     4    20     4
Direct
  0.9666595507606993  0.3583050326568105  0.3203816375102261
  0.9817503681071040  0.7319789069349286  0.7013676982238722
  0.0260012654331628  0.2961194620867341  0.6828704138211441
  0.0317489050952117  0.7938382999275968  0.1443773095969502
  0.1758714721870380  0.1757467065147025  0.9522370792141158
  0.3220238218438083  0.7186693979203569  0.0126639872155762
  0.8291412878304730  0.2217306862298519  0.0334371905105402
  0.7091940089484077  0.7017549766886455  0.9827679618701139
  0.2216073908708475  0.9922037901074016  0.2290365257824730
  0.5783665142412922  0.9624969661369219  0.7101196678534600
  0.8448501629394001  0.9724493378363811  0.8349073875249682
  0.8098611440718564  0.0220302946966763  0.2211238388343561
  0.1547782224443748  0.7126330799672218  0.4506253042680045
  0.3103863557837900  0.1702518555324977  0.5481759721522960
  0.7117373686957686  0.8096117251560137  0.5109899097246696
  0.7023538081783569  0.2146684081422102  0.4917145406981158
  0.2124545000212945  0.5003609522318204  0.7082594164701094
  0.2986187358821164  0.5175778108774578  0.2016639439104268
  0.6677230421957547  0.4637689109456520  0.1843310989755655
  0.7928344652096603  0.5356874292367674  0.6678268940675119
  0.4615865129853113  0.3200815371707114  0.8500744070018028
  0.4670686463131902  0.8057509788097756  0.3264630674478802
  0.5253714185215625  0.1887949621267552  0.2860166202497405
  0.5181328759028438  0.6724787210824293  0.7847302708214489
  0.4940271456897424  0.5037850496892579  0.4981537172747452
  0.5074488223685383  0.0041584728048532  0.9997811705744805
  0.9989904563229970  0.5038270671071794  0.9974551572956000
  0.0100687186045421  0.0056146293273683  0.5041733234194590
  0.1445174161956429  0.9006613432464742  0.6266362845114036
  0.1146029022373388  0.1485988351664612  0.3867276325095982
  0.9091776009735230  0.8634438379735592  0.3789443195928871
  0.8713345984249622  0.1106854711113654  0.6292046124645395
  0.8746073102379099  0.6072557394808306  0.1373252235187839
  0.8739580702172315  0.3947808712125164  0.8652035456216279
  0.1153593582335235  0.6476002410009185  0.8905213465000273
  0.1176395412097103  0.3707316780403799  0.1122694697361727
  0.6404043137923386  0.1287289951777029  0.8864463334036647
  0.6201172927293971  0.8819914578986661  0.1324085612064176
  0.3768370752421296  0.1359486079522546  0.1043837304168982
  0.3927571363735578  0.8931460893234604  0.8599728764405999
  0.6299915823485523  0.6162590794070540  0.3779096555116304
  0.6022106280402277  0.3895189959328691  0.6419697352872062
  0.3703241058139540  0.6493206838454458  0.5925621975882487
  0.3792376282204810  0.3706251827073037  0.3799346816463061
  0.7429296387384292  0.7651981806671859  0.7477887189760798
  0.7534591961041411  0.2521672732367641  0.2599655222121431
  0.2521331509098231  0.7549072159205902  0.2354300908080703
  0.2501512077167257  0.2729105006841529  0.7520848180573415
  0.9879843246230262  0.0150262064227466  0.0290531871220560
  0.0059962399994426  0.5181653877949678  0.5377723080502980
  0.5216437865676793  0.0127006045289773  0.4791463719483662
  0.4993847549012499  0.5340051870224950  0.9980291118599599
 
  0.00000000E+00  0.00000000E+00  0.00000000E+00
  0.00000000E+00  0.00000000E+00  0.00000000E+00
  0.00000000E+00  0.00000000E+00  0.00000000E+00
  0.00000000E+00  0.00000000E+00  0.00000000E+00
  0.00000000E+00  0.00000000E+00  0.00000000E+00
  0.00000000E+00  0.00000000E+00  0.00000000E+00
  0.00000000E+00  0.00000000E+00  0.00000000E+00
  0.00000000E+00  0.00000000E+00  0.00000000E+00
  0.00000000E+00  0.00000000E+00  0.00000000E+00
  0.00000000E+00  0.00000000E+00  0.00000000E+00
  0.00000000E+00  0.00000000E+00  0.00000000E+00
  0.00000000E+00  0.00000000E+00  0.00000000E+00
  0.00000000E+00  0.00000000E+00  0.00000000E+00
  0.00000000E+00  0.00000000E+00  0.00000000E+00
  0.00000000E+00  0.00000000E+00  0.00000000E+00
  0.00000000E+00  0.00000000E+00  0.00000000E+00
  0.00000000E+00  0.00000000E+00  0.00000000E+00
  0.00000000E+00  0.00000000E+00  0.00000000E+00
  0.00000000E+00  0.00000000E+00  0.00000000E+00
  0.00000000E+00  0.00000000E+00  0.00000000E+00
  0.00000000E+00  0.00000000E+00  0.00000000E+00
  0.00000000E+00  0.00000000E+00  0.00000000E+00
  0.00000000E+00  0.00000000E+00  0.00000000E+00
  0.00000000E+00  0.00000000E+00  0.00000000E+00
  0.00000000E+00  0.00000000E+00  0.00000000E+00
  0.00000000E+00  0.00000000E+00  0.00000000E+00
  0.00000000E+00  0.00000000E+00  0.00000000E+00
  0.00000000E+00  0.00000000E+00  0.00000000E+00
  0.00000000E+00  0.00000000E+00  0.00000000E+00
  0.00000000E+00  0.00000000E+00  0.00000000E+00
  0.00000000E+00  0.00000000E+00  0.00000000E+00
  0.00000000E+00  0.00000000E+00  0.00000000E+00
  0.00000000E+00  0.00000000E+00  0.00000000E+00
  0.00000000E+00  0.00000000E+00  0.00000000E+00
  0.00000000E+00  0.00000000E+00  0.00000000E+00
  0.00000000E+00  0.00000000E+00  0.00000000E+00
  0.00000000E+00  0.00000000E+00  0.00000000E+00
  0.00000000E+00  0.00000000E+00  0.00000000E+00
  0.00000000E+00  0.00000000E+00  0.00000000E+00
  0.00000000E+00  0.00000000E+00  0.00000000E+00
  0.00000000E+00  0.00000000E+00  0.00000000E+00
  0.00000000E+00  0.00000000E+00  0.00000000E+00
  0.00000000E+00  0.00000000E+00  0.00000000E+00
  0.00000000E+00  0.00000000E+00  0.00000000E+00
  0.00000000E+00  0.00000000E+00  0.00000000E+00
  0.00000000E+00  0.00000000E+00  0.00000000E+00
  0.00000000E+00  0.00000000E+00  0.00000000E+00
  0.00000000E+00  0.00000000E+00  0.00000000E+00
  0.00000000E+00  0.00000000E+00  0.00000000E+00
  0.00000000E+00  0.00000000E+00  0.00000000E+00
  0.00000000E+00  0.00000000E+00  0.00000000E+00
  0.00000000E+00  0.00000000E+00  0.00000000E+00
