Li24 P4 S20 Cl4                         
   1.00000000000000     
     9.6477607036356190    0.0000000000000000    0.0000000000000000
     0.0000000000000000    9.6477607036356190    0.0000000000000000
     0.0000000000000000    0.0000000000000000    9.6477607036356190
   Li   P    S    Cl
    24     4    20     4
Direct
  0.9666601717822729  0.3582874260239706  0.3203831663167520
  0.9817514402517489  0.7319790338113776  0.7013743663564327
  0.0260036776231729  0.2961176521453055  0.6828790078599738
  0.0317464702645083  0.7938493473271606  0.1443852724464492
  0.1758694062597286  0.1757595478891218  0.9522466195898502
  0.3220206534946186  0.7186634973226660  0.0126655200587322
  0.8291203970985066  0.2217270921338539  0.0334307467995671
  0.7091947952050006  0.7017623624638674  0.9827651975591820
  0.2216226615139689  0.9922017490394310  0.2290501786888797
  0.5783578842926929  0.9624894114975220  0.7101135742388820
  0.8448443167621491  0.9724554381473638  0.8349016848077682
  0.8098584322965081  0.0220374502793916  0.2211203716954273
  0.1547867754337631  0.7126272652573462  0.4506311938826357
  0.3103837053822076  0.1702617394414858  0.5481761535136656
  0.7117459953741658  0.8095958794550100  0.5109895000478417
  0.7023553528736599  0.2146583255471697  0.4917081404456738
  0.2124531778062178  0.5003558871308300  0.7082613374091977
  0.2986121339822105  0.5175812286050387  0.2016783426504389
  0.6677332999240235  0.4637774100517831  0.1843306118879795
  0.7928387480544501  0.5356823065780034  0.6678450447000088
  0.4615902758438253  0.3200856100480607  0.8500608602137874
  0.4670727124174405  0.8057538063237004  0.3264529381078631
  0.5253694622037912  0.1888033091263353  0.2860089288779761
  0.5181347535613625  0.6724804777531119  0.7847321863378767
  0.4940258341728807  0.5037857446762359  0.4981492810130419
  0.5074502929201117  0.0041628816640298  0.9997848059835306
  0.9989912360017073  0.5038291343549588  0.9974564976095408
  0.0100695686801657  0.0056119998754056  0.5041737665067387
  0.1445076110201313  0.9006592246335501  0.6266251486485288
  0.1146026833769582  0.1485883789917111  0.3867315723997322
  0.9091772975109649  0.8634573064401394  0.3789429980649643
  0.8713411722660638  0.1106864394933851  0.6291965731887217
  0.8746128934302178  0.6072619360814144  0.1373115262526525
  0.8739693374837287  0.3947793219632842  0.8652144263377650
  0.1153580261784555  0.6475877806773696  0.8905238169512160
  0.1176378649444487  0.3707425749356830  0.1122730609633820
  0.6403907444394790  0.1287185053287203  0.8864402152867754
  0.6201140553502569  0.8819996098837350  0.1323964723013944
  0.3768396240085323  0.1359356657676400  0.1043812044024222
  0.3927590069295590  0.8931386154689420  0.8599779118872419
  0.6299776607961221  0.6162547408071717  0.3779102569109938
  0.6022171495037441  0.3895174823355703  0.6419595216553518
  0.3703315068395838  0.6493036902560192  0.5925678322850132
  0.3792414880543404  0.3706293698010583  0.3799438666114483
  0.7429297043460252  0.7651987180727531  0.7477870931288493
  0.7534550497401753  0.2521709044332781  0.2599610024647561
  0.2521323541764033  0.7549090693585754  0.2354309012867972
  0.2501501191974853  0.2729092745029007  0.7520897464421097
  0.9879712743565676  0.0150366087613136  0.0290480224454512
  0.0059944490775052  0.5181671972762842  0.5377828570208436
  0.5216484825069259  0.0127053977636962  0.4791420763703300
  0.4993926602896082  0.5340122866963881  0.9980224483875446
 
  0.00000000E+00  0.00000000E+00  0.00000000E+00
  0.00000000E+00  0.00000000E+00  0.00000000E+00
  0.00000000E+00  0.00000000E+00  0.00000000E+00
  0.00000000E+00  0.00000000E+00  0.00000000E+00
  0.00000000E+00  0.00000000E+00  0.00000000E+00
  0.00000000E+00  0.00000000E+00  0.00000000E+00
  0.00000000E+00  0.00000000E+00  0.00000000E+00
  0.00000000E+00  0.00000000E+00  0.00000000E+00
  0.00000000E+00  0.00000000E+00  0.00000000E+00
  0.00000000E+00  0.00000000E+00  0.00000000E+00
  0.00000000E+00  0.00000000E+00  0.00000000E+00
  0.00000000E+00  0.00000000E+00  0.00000000E+00
  0.00000000E+00  0.00000000E+00  0.00000000E+00
  0.00000000E+00  0.00000000E+00  0.00000000E+00
  0.00000000E+00  0.00000000E+00  0.00000000E+00
  0.00000000E+00  0.00000000E+00  0.00000000E+00
  0.00000000E+00  0.00000000E+00  0.00000000E+00
  0.00000000E+00  0.00000000E+00  0.00000000E+00
  0.00000000E+00  0.00000000E+00  0.00000000E+00
  0.00000000E+00  0.00000000E+00  0.00000000E+00
  0.00000000E+00  0.00000000E+00  0.00000000E+00
  0.00000000E+00  0.00000000E+00  0.00000000E+00
  0.00000000E+00  0.00000000E+00  0.00000000E+00
  0.00000000E+00  0.00000000E+00  0.00000000E+00
  0.00000000E+00  0.00000000E+00  0.00000000E+00
  0.00000000E+00  0.00000000E+00  0.00000000E+00
  0.00000000E+00  0.00000000E+00  0.00000000E+00
  0.00000000E+00  0.00000000E+00  0.00000000E+00
  0.00000000E+00  0.00000000E+00  0.00000000E+00
  0.00000000E+00  0.00000000E+00  0.00000000E+00
  0.00000000E+00  0.00000000E+00  0.00000000E+00
  0.00000000E+00  0.00000000E+00  0.00000000E+00
  0.00000000E+00  0.00000000E+00  0.00000000E+00
  0.00000000E+00  0.00000000E+00  0.00000000E+00
  0.00000000E+00  0.00000000E+00  0.00000000E+00
  0.00000000E+00  0.00000000E+00  0.00000000E+00
  0.00000000E+00  0.00000000E+00  0.00000000E+00
  0.00000000E+00  0.00000000E+00  0.00000000E+00
  0.00000000E+00  0.00000000E+00  0.00000000E+00
  0.00000000E+00  0.00000000E+00  0.00000000E+00
  0.00000000E+00  0.00000000E+00  0.00000000E+00
  0.00000000E+00  0.00000000E+00  0.00000000E+00
  0.00000000E+00  0.00000000E+00  0.00000000E+00
  0.00000000E+00  0.00000000E+00  0.00000000E+00
  0.00000000E+00  0.00000000E+00  0.00000000E+00
  0.00000000E+00  0.00000000E+00  0.00000000E+00
  0.00000000E+00  0.00000000E+00  0.00000000E+00
  0.00000000E+00  0.00000000E+00  0.00000000E+00
  0.00000000E+00  0.00000000E+00  0.00000000E+00
  0.00000000E+00  0.00000000E+00  0.00000000E+00
  0.00000000E+00  0.00000000E+00  0.00000000E+00
  0.00000000E+00  0.00000000E+00  0.00000000E+00
