Li24 P4 S20 Cl4                         
   1.00000000000000     
     9.7376166536958539    0.0000000000000000    0.0000000000000000
     0.0000000000000000    9.7376166536958539    0.0000000000000000
     0.0000000000000000    0.0000000000000000    9.7376166536958539
   Li   P    S    Cl
    24     4    20     4
Direct
  0.9913494198331985  0.3198905233108648  0.2809064222209738
  0.9656843091326870  0.8340118738388286  0.7863882260807228
  0.0223700542706920  0.1761043721386583  0.7849697252986289
  0.0232656448425935  0.7435006893845341  0.2516923363334376
  0.2150738757513666  0.1761043721386583  0.9776735467793033
  0.2136553749692797  0.8340118738388286  0.0343592919173226
  0.7191371788290357  0.3198905233108648  0.0086941812168112
  0.7483512647165577  0.7435006893845341  0.9767779562074018
  0.2780561855870067  0.9438310081408293  0.4064434456634491
  0.6633288777582280  0.0451538729072377  0.3367147232917886
  0.5936001553865534  0.9438310081408293  0.7219874154630100
  0.8578178438390888  0.0427825057286122  0.1422257572109066
  0.1817346332753665  0.6495296862601302  0.4710265921872597
  0.2053639228257604  0.2740229584789711  0.5269685650036848
  0.7064518801995905  0.7943494815628986  0.5202037834731477
  0.7977180809672162  0.2917110285074594  0.4828795388004802
  0.2368942211037116  0.4645224767742665  0.7631493799462767
  0.3266271060071521  0.5355596526674690  0.1747977921745069
  0.7477821216237366  0.4792201409996487  0.2522614794262871
  0.8252458088754885  0.5355596526674690  0.6734164950428361
  0.4730750360463318  0.2740229584789711  0.7946796782242136
  0.4798398175768619  0.7943494815628986  0.2935917208503906
  0.5171640622495224  0.2917110285074594  0.2023255200828004
  0.5290170088627428  0.6495296862601302  0.8183089677746289
  0.4948132817324590  0.4947934576552602  0.5052303193175575
  0.5106465406051401  0.9971806562388310  0.0087971361733669
  0.0140772562743771  0.5016186918470080  0.9859663447756183
  0.9912464648766285  0.9971806562388239  0.4893970604448694
  0.1201731663893520  0.8719500724178824  0.5966781495221137
  0.1093492440042986  0.1196033216951779  0.3631540433353652
  0.8655619956874370  0.8875365729031600  0.3569759117869912
  0.8604163308420848  0.0988377209744171  0.6179668348185906
  0.8849344438977524  0.6097332356465595  0.1151091571522856
  0.8975415741945524  0.3816457414196810  0.8579212059778177
  0.1230203874437975  0.6437917833183351  0.8770232136062049
  0.1421223950721847  0.3816457414196810  0.1025020268554642
  0.6368895577146230  0.1196033216951779  0.8906943570456967
  0.6430676892630041  0.8875365729031600  0.1344816053625513
  0.3820767662314120  0.0988377209744171  0.1396272702079107
  0.4033654515278745  0.8719500724178824  0.8798704346606292
  0.6166692876185135  0.6170837508806712  0.3833743134314819
  0.6216965347831575  0.3796361102883680  0.6278844933916181
  0.3729387056100067  0.6157899992184371  0.6271048954399886
  0.3721591076583842  0.3796361102883680  0.3783470662668449
  0.7423811444781548  0.7474338135465770  0.7472489528299744
  0.7568912769597772  0.2481543894564812  0.2431523240902182
  0.2527946482200351  0.7474338135465770  0.2576624565718546
  0.2491942327682660  0.2336066783625556  0.7508493682817364
  0.0248896484059572  0.9974816520028237  0.9751539526440454
  0.9877579562046245  0.4722997260984462  0.4810435287864919
  0.5090626420431101  0.9589084891560328  0.4909809590069067
  0.5190000722635247  0.4722997260984462  0.0122856448453850
 
  0.00000000E+00  0.00000000E+00  0.00000000E+00
  0.00000000E+00  0.00000000E+00  0.00000000E+00
  0.00000000E+00  0.00000000E+00  0.00000000E+00
  0.00000000E+00  0.00000000E+00  0.00000000E+00
  0.00000000E+00  0.00000000E+00  0.00000000E+00
  0.00000000E+00  0.00000000E+00  0.00000000E+00
  0.00000000E+00  0.00000000E+00  0.00000000E+00
  0.00000000E+00  0.00000000E+00  0.00000000E+00
  0.00000000E+00  0.00000000E+00  0.00000000E+00
  0.00000000E+00  0.00000000E+00  0.00000000E+00
  0.00000000E+00  0.00000000E+00  0.00000000E+00
  0.00000000E+00  0.00000000E+00  0.00000000E+00
  0.00000000E+00  0.00000000E+00  0.00000000E+00
  0.00000000E+00  0.00000000E+00  0.00000000E+00
  0.00000000E+00  0.00000000E+00  0.00000000E+00
  0.00000000E+00  0.00000000E+00  0.00000000E+00
  0.00000000E+00  0.00000000E+00  0.00000000E+00
  0.00000000E+00  0.00000000E+00  0.00000000E+00
  0.00000000E+00  0.00000000E+00  0.00000000E+00
  0.00000000E+00  0.00000000E+00  0.00000000E+00
  0.00000000E+00  0.00000000E+00  0.00000000E+00
  0.00000000E+00  0.00000000E+00  0.00000000E+00
  0.00000000E+00  0.00000000E+00  0.00000000E+00
  0.00000000E+00  0.00000000E+00  0.00000000E+00
  0.00000000E+00  0.00000000E+00  0.00000000E+00
  0.00000000E+00  0.00000000E+00  0.00000000E+00
  0.00000000E+00  0.00000000E+00  0.00000000E+00
  0.00000000E+00  0.00000000E+00  0.00000000E+00
  0.00000000E+00  0.00000000E+00  0.00000000E+00
  0.00000000E+00  0.00000000E+00  0.00000000E+00
  0.00000000E+00  0.00000000E+00  0.00000000E+00
  0.00000000E+00  0.00000000E+00  0.00000000E+00
  0.00000000E+00  0.00000000E+00  0.00000000E+00
  0.00000000E+00  0.00000000E+00  0.00000000E+00
  0.00000000E+00  0.00000000E+00  0.00000000E+00
  0.00000000E+00  0.00000000E+00  0.00000000E+00
  0.00000000E+00  0.00000000E+00  0.00000000E+00
  0.00000000E+00  0.00000000E+00  0.00000000E+00
  0.00000000E+00  0.00000000E+00  0.00000000E+00
  0.00000000E+00  0.00000000E+00  0.00000000E+00
  0.00000000E+00  0.00000000E+00  0.00000000E+00
  0.00000000E+00  0.00000000E+00  0.00000000E+00
  0.00000000E+00  0.00000000E+00  0.00000000E+00
  0.00000000E+00  0.00000000E+00  0.00000000E+00
  0.00000000E+00  0.00000000E+00  0.00000000E+00
  0.00000000E+00  0.00000000E+00  0.00000000E+00
  0.00000000E+00  0.00000000E+00  0.00000000E+00
  0.00000000E+00  0.00000000E+00  0.00000000E+00
  0.00000000E+00  0.00000000E+00  0.00000000E+00
  0.00000000E+00  0.00000000E+00  0.00000000E+00
  0.00000000E+00  0.00000000E+00  0.00000000E+00
  0.00000000E+00  0.00000000E+00  0.00000000E+00
