Li24 P4 S20 Cl4                         
   1.00000000000000     
     9.7376166536958539    0.0000000000000000    0.0000000000000000
     0.0000000000000000    9.7376166536958539    0.0000000000000000
     0.0000000000000000    0.0000000000000000    9.7376166536958539
   Li   P    S    Cl
    24     4    20     4
Direct
  0.9913460980863178  0.3198913006643735  0.2809149454007596
  0.9656934380433597  0.8340063402654039  0.7863774109485604
  0.0223651872516797  0.1761053860085795  0.7849739068010706
  0.0232703216901911  0.7435369822708537  0.2516570775957589
  0.2150696942489247  0.1761053860085795  0.9776784137983157
  0.2136661901014421  0.8340063402654039  0.0343501630066498
  0.7191286556492500  0.3198913006643735  0.0086975029636918
  0.7483865234542364  0.7435369822708537  0.9767732793598043
  0.2780580385745850  0.9438296310707841  0.4064391715296338
  0.6633284706123348  0.0451539001005514  0.3367151304376819
  0.5936044295203686  0.9438296310707841  0.7219855624754317
  0.8578161171939485  0.0427907651335317  0.1422274838560469
  0.1817279378840126  0.6495250431390929  0.4710165328310154
  0.2053604758222107  0.2740194840959020  0.5269725385859871
  0.7064531860730554  0.7943464194991350  0.5202016616445704
  0.7977117904100481  0.2917106322777130  0.4828838587048807
  0.2368967525452774  0.4645241394926316  0.7631468485047108
  0.3266238102257901  0.5355555725996410  0.1747966552010709
  0.7477822602011983  0.4792218081813076  0.2522613408488255
  0.8252469458489244  0.5355555725996410  0.6734197908241981
  0.4730710624640295  0.2740194840959020  0.7946831252277633
  0.4798419394054392  0.7943464194991350  0.2935904149769257
  0.5171597423451217  0.2917106322777130  0.2023318106399685
  0.5290270682189870  0.6495250431390929  0.8183156631659827
  0.4948143390502011  0.4947938926544282  0.5052292619998155
  0.5106467045278222  0.9971831460782425  0.0087999313443277
  0.0140774360750555  0.5016155237792290  0.9859661649749398
  0.9912436697056677  0.9971831460782354  0.4893968965221873
  0.1201780970358115  0.8719480138223332  0.5966737421957973
  0.1093500224510819  0.1196030972096622  0.3631522844903401
  0.8655609707618481  0.8875378022647453  0.3569756961779049
  0.8604184928411485  0.0988356421789405  0.6179672333865724
  0.8849307728079552  0.6097379444644062  0.1151128282420828
  0.8975366248992529  0.3816444648641308  0.8579282487481734
  0.1230196038972551  0.6437862331764137  0.8770239971527474
  0.1421153523018290  0.3816444648641308  0.1025069761507638
  0.6368913165596481  0.1196030972096622  0.8906935785989134
  0.6430679048720904  0.8875378022647453  0.1344826302881401
  0.3820763676634300  0.0988356421789405  0.1396251082088469
  0.4033698588541910  0.8719480138223332  0.8798655040141696
  0.6166673773144566  0.6170800707498216  0.3833762237355387
  0.6216919551799691  0.3796366494792380  0.6278897403044468
  0.3729373260930444  0.6157963131753661  0.6271062749569509
  0.3721538607455557  0.3796366494792380  0.3783516458700333
  0.7423869602152422  0.7474333004729488  0.7472459205752173
  0.7568879431056388  0.2481564392645979  0.2431556579443566
  0.2527976804747922  0.7474333004729488  0.2576566408347674
  0.2491887826524106  0.2336070495282101  0.7508548183975918
  0.0248856639280888  0.9974676967097835  0.9751579371219137
  0.9877550027582060  0.4722879515645104  0.4810520531096785
  0.5090639167174942  0.9589056476375575  0.4909796843325225
  0.5189915479403382  0.4722879515645104  0.0122885982918035
 
  0.00000000E+00  0.00000000E+00  0.00000000E+00
  0.00000000E+00  0.00000000E+00  0.00000000E+00
  0.00000000E+00  0.00000000E+00  0.00000000E+00
  0.00000000E+00  0.00000000E+00  0.00000000E+00
  0.00000000E+00  0.00000000E+00  0.00000000E+00
  0.00000000E+00  0.00000000E+00  0.00000000E+00
  0.00000000E+00  0.00000000E+00  0.00000000E+00
  0.00000000E+00  0.00000000E+00  0.00000000E+00
  0.00000000E+00  0.00000000E+00  0.00000000E+00
  0.00000000E+00  0.00000000E+00  0.00000000E+00
  0.00000000E+00  0.00000000E+00  0.00000000E+00
  0.00000000E+00  0.00000000E+00  0.00000000E+00
  0.00000000E+00  0.00000000E+00  0.00000000E+00
  0.00000000E+00  0.00000000E+00  0.00000000E+00
  0.00000000E+00  0.00000000E+00  0.00000000E+00
  0.00000000E+00  0.00000000E+00  0.00000000E+00
  0.00000000E+00  0.00000000E+00  0.00000000E+00
  0.00000000E+00  0.00000000E+00  0.00000000E+00
  0.00000000E+00  0.00000000E+00  0.00000000E+00
  0.00000000E+00  0.00000000E+00  0.00000000E+00
  0.00000000E+00  0.00000000E+00  0.00000000E+00
  0.00000000E+00  0.00000000E+00  0.00000000E+00
  0.00000000E+00  0.00000000E+00  0.00000000E+00
  0.00000000E+00  0.00000000E+00  0.00000000E+00
  0.00000000E+00  0.00000000E+00  0.00000000E+00
  0.00000000E+00  0.00000000E+00  0.00000000E+00
  0.00000000E+00  0.00000000E+00  0.00000000E+00
  0.00000000E+00  0.00000000E+00  0.00000000E+00
  0.00000000E+00  0.00000000E+00  0.00000000E+00
  0.00000000E+00  0.00000000E+00  0.00000000E+00
  0.00000000E+00  0.00000000E+00  0.00000000E+00
  0.00000000E+00  0.00000000E+00  0.00000000E+00
  0.00000000E+00  0.00000000E+00  0.00000000E+00
  0.00000000E+00  0.00000000E+00  0.00000000E+00
  0.00000000E+00  0.00000000E+00  0.00000000E+00
  0.00000000E+00  0.00000000E+00  0.00000000E+00
  0.00000000E+00  0.00000000E+00  0.00000000E+00
  0.00000000E+00  0.00000000E+00  0.00000000E+00
  0.00000000E+00  0.00000000E+00  0.00000000E+00
  0.00000000E+00  0.00000000E+00  0.00000000E+00
  0.00000000E+00  0.00000000E+00  0.00000000E+00
  0.00000000E+00  0.00000000E+00  0.00000000E+00
  0.00000000E+00  0.00000000E+00  0.00000000E+00
  0.00000000E+00  0.00000000E+00  0.00000000E+00
  0.00000000E+00  0.00000000E+00  0.00000000E+00
  0.00000000E+00  0.00000000E+00  0.00000000E+00
  0.00000000E+00  0.00000000E+00  0.00000000E+00
  0.00000000E+00  0.00000000E+00  0.00000000E+00
  0.00000000E+00  0.00000000E+00  0.00000000E+00
  0.00000000E+00  0.00000000E+00  0.00000000E+00
  0.00000000E+00  0.00000000E+00  0.00000000E+00
  0.00000000E+00  0.00000000E+00  0.00000000E+00
