Li24 P4 S20 Cl4                         
   1.00000000000000     
     9.6603704995383257    0.0000000000000000    0.0000000000000000
     0.0000000000000000    9.6603704995383257    0.0000000000000000
     0.0000000000000000    0.0000000000000000    9.6603704995383257
   Li   P    S    Cl
    24     4    20     4
Direct
  0.9838766954867040  0.2724362185171756  0.2881662016099956
  0.9607076335060855  0.6599773016142432  0.6589806076587360
  0.0333652210067131  0.2260524292139053  0.8714137442950172
  0.0329230815079979  0.7103563574671206  0.3157333406128928
  0.3336993835842495  0.2995672451909038  0.9830225976122949
  0.2836302160442591  0.6931609628871968  0.0085324236855237
  0.6697312845836093  0.3290736605612048  0.0456939443278022
  0.8318076022316587  0.7926180437449032  0.9649414989235733
  0.1766801288012444  0.9607561703839800  0.1646186822281367
  0.1918782227799703  0.0127232308802346  0.7881900998558552
  0.8016613657904411  0.9956668669689849  0.7835000780514868
  0.8127344301972999  0.0432043026146805  0.1642113941390748
  0.3255903447953687  0.8371125379385577  0.4492428281223148
  0.1795367490977904  0.3031525372951172  0.5400243714544668
  0.7065856461128344  0.8237226416268381  0.5069271199300687
  0.7263998269602873  0.2046922044407650  0.4935343368325624
  0.2870038863203669  0.4825579853644692  0.7800335301963562
  0.2174765554207801  0.5119646768283925  0.2862317505990102
  0.8003320755393115  0.4765221980659575  0.3247444281435234
  0.6640404975203663  0.5522996926252886  0.8114536725217923
  0.4672580049537639  0.1869973000822295  0.6864365416640167
  0.4901254193138729  0.6815106002583947  0.1858194968213626
  0.5220054167499587  0.1675033740274538  0.3127842378515202
  0.5238257646802452  0.8128619450568562  0.7032837556897731
  0.5006439760627546  0.5014736183864166  0.5012151282739309
  0.5031917913510898  0.9978132412516024  0.9996270627217562
  0.9886016393553443  0.5024369479300579  0.9993394082463944
  0.0146884731236016  0.0019145650026675  0.4940597563029577
  0.1229065847408850  0.8573817760665448  0.6045732469195106
  0.1504806742940554  0.1122249825532820  0.3739861488567385
  0.8830753886377731  0.9000335478854652  0.3611460647075828
  0.9171641378404819  0.1399999727132507  0.6238240671110667
  0.8786140948288175  0.6221046118199430  0.1344897759147312
  0.8522557935195764  0.3922072118798413  0.8806415656948403
  0.1011783291979060  0.6261278369091332  0.8674397699789244
  0.1177660894635347  0.3674351763177272  0.1034448340662134
  0.6186401717143508  0.1339337139670319  0.8839296101814702
  0.6338478338517561  0.8743335357428531  0.1113411250166041
  0.3764342111503967  0.1092187837739824  0.1282546240443429
  0.3760529735806219  0.8787449379298422  0.8771543715981290
  0.6228275866593959  0.6268466590787047  0.3801308938812292
  0.6212471148778781  0.3844993526015741  0.6308254136736040
  0.3749934201604574  0.6332027565919525  0.6106881782698175
  0.3831939117364646  0.3667048250215422  0.3868937999912888
  0.7543321979617718  0.7644914515474113  0.7369630305931575
  0.7463013040329586  0.2520120200460750  0.2606744357932136
  0.2584081377607337  0.7425796211212671  0.2373313394431184
  0.2493921605456434  0.2475757834051985  0.7631033587786001
  0.9905253427106147  0.0011529545483778  0.9816910129852053
  0.0168611227199720  0.4934672840329514  0.4571931655725712
  0.5238254626469570  0.0036467440154553  0.5146934816967248
  0.4774298424891914  0.5076686642049079  0.9872337468588481
 
  0.00000000E+00  0.00000000E+00  0.00000000E+00
  0.00000000E+00  0.00000000E+00  0.00000000E+00
  0.00000000E+00  0.00000000E+00  0.00000000E+00
  0.00000000E+00  0.00000000E+00  0.00000000E+00
  0.00000000E+00  0.00000000E+00  0.00000000E+00
  0.00000000E+00  0.00000000E+00  0.00000000E+00
  0.00000000E+00  0.00000000E+00  0.00000000E+00
  0.00000000E+00  0.00000000E+00  0.00000000E+00
  0.00000000E+00  0.00000000E+00  0.00000000E+00
  0.00000000E+00  0.00000000E+00  0.00000000E+00
  0.00000000E+00  0.00000000E+00  0.00000000E+00
  0.00000000E+00  0.00000000E+00  0.00000000E+00
  0.00000000E+00  0.00000000E+00  0.00000000E+00
  0.00000000E+00  0.00000000E+00  0.00000000E+00
  0.00000000E+00  0.00000000E+00  0.00000000E+00
  0.00000000E+00  0.00000000E+00  0.00000000E+00
  0.00000000E+00  0.00000000E+00  0.00000000E+00
  0.00000000E+00  0.00000000E+00  0.00000000E+00
  0.00000000E+00  0.00000000E+00  0.00000000E+00
  0.00000000E+00  0.00000000E+00  0.00000000E+00
  0.00000000E+00  0.00000000E+00  0.00000000E+00
  0.00000000E+00  0.00000000E+00  0.00000000E+00
  0.00000000E+00  0.00000000E+00  0.00000000E+00
  0.00000000E+00  0.00000000E+00  0.00000000E+00
  0.00000000E+00  0.00000000E+00  0.00000000E+00
  0.00000000E+00  0.00000000E+00  0.00000000E+00
  0.00000000E+00  0.00000000E+00  0.00000000E+00
  0.00000000E+00  0.00000000E+00  0.00000000E+00
  0.00000000E+00  0.00000000E+00  0.00000000E+00
  0.00000000E+00  0.00000000E+00  0.00000000E+00
  0.00000000E+00  0.00000000E+00  0.00000000E+00
  0.00000000E+00  0.00000000E+00  0.00000000E+00
  0.00000000E+00  0.00000000E+00  0.00000000E+00
  0.00000000E+00  0.00000000E+00  0.00000000E+00
  0.00000000E+00  0.00000000E+00  0.00000000E+00
  0.00000000E+00  0.00000000E+00  0.00000000E+00
  0.00000000E+00  0.00000000E+00  0.00000000E+00
  0.00000000E+00  0.00000000E+00  0.00000000E+00
  0.00000000E+00  0.00000000E+00  0.00000000E+00
  0.00000000E+00  0.00000000E+00  0.00000000E+00
  0.00000000E+00  0.00000000E+00  0.00000000E+00
  0.00000000E+00  0.00000000E+00  0.00000000E+00
  0.00000000E+00  0.00000000E+00  0.00000000E+00
  0.00000000E+00  0.00000000E+00  0.00000000E+00
  0.00000000E+00  0.00000000E+00  0.00000000E+00
  0.00000000E+00  0.00000000E+00  0.00000000E+00
  0.00000000E+00  0.00000000E+00  0.00000000E+00
  0.00000000E+00  0.00000000E+00  0.00000000E+00
  0.00000000E+00  0.00000000E+00  0.00000000E+00
  0.00000000E+00  0.00000000E+00  0.00000000E+00
  0.00000000E+00  0.00000000E+00  0.00000000E+00
  0.00000000E+00  0.00000000E+00  0.00000000E+00
