Li24 P4 S20 Cl4                         
   1.00000000000000     
     9.6603704995383257    0.0000000000000000    0.0000000000000000
     0.0000000000000000    9.6603704995383257    0.0000000000000000
     0.0000000000000000    0.0000000000000000    9.6603704995383257
   Li   P    S    Cl
    24     4    20     4
Direct
  0.9838769501654525  0.2724408736567980  0.2881568221177062
  0.9607106446405425  0.6599916518500848  0.6589785353686679
  0.0333805043634143  0.2260501466148668  0.8714509689471299
  0.0329213093317264  0.7103546423555613  0.3157186938661383
  0.3337038797061069  0.2995776776587888  0.9830199385028351
  0.2836324948089626  0.6931560754022286  0.0085302241506824
  0.6697367404437031  0.3290655897856638  0.0456911854476587
  0.8317837736942622  0.7926236917507481  0.9649495555988423
  0.1766927065463051  0.9607560434994014  0.1646120039997498
  0.1918798417150143  0.0127263822471519  0.7881782166517226
  0.8016668630949155  0.9956648289739789  0.7835024047414123
  0.8127370262345650  0.0431943781417417  0.1642296450609919
  0.3255962316350676  0.8371012510432294  0.4492424122577603
  0.1795227519785669  0.3031411334391549  0.5400271310007696
  0.7065766074553608  0.8237181319233429  0.5069326407168120
  0.7264164693585045  0.2047130049019898  0.4935373646020267
  0.2869947300233804  0.4825559243918818  0.7800242181809551
  0.2174777036549997  0.5119642733553462  0.2862374572900137
  0.8003308405417826  0.4765242390514075  0.3247324127745586
  0.6640493755605590  0.5522938631334000  0.8114527038074968
  0.4672557804255888  0.1869952717144514  0.6864337300646923
  0.4901261630932865  0.6815102674573978  0.1858171726626594
  0.5220071155812036  0.1675005722655953  0.3127922470186491
  0.5238246048158928  0.8128599750703316  0.7032945590658457
  0.5006422117153733  0.5014722352029466  0.5012176615637145
  0.5031859379162995  0.9978249601060583  0.9996205350251088
  0.9886026872062175  0.5024444864104822  0.9993281646278476
  0.0146852462107105  0.0019126023444329  0.4940585389233476
  0.1229136505912933  0.8573832893393458  0.6045689727660815
  0.1504708532996091  0.1122228655948945  0.3739763355562360
  0.8830715010596464  0.9000227287109226  0.3611536557477990
  0.9171713527108452  0.1399965426350818  0.6238263093735554
  0.8786102327787688  0.6221046516549222  0.1344821326868839
  0.8522612096440199  0.3922011409695756  0.8806402330569867
  0.1011790822408756  0.6261295764611674  0.8674352104931913
  0.1177687517056256  0.3674415499259709  0.1034432587946483
  0.6186404924665894  0.1339327038967895  0.8839241666220374
  0.6338402670672707  0.8743412864955076  0.1113466048743561
  0.3764380193351968  0.1092302424207858  0.1282534821887609
  0.3760473689743833  0.8787493634600523  0.8771588828813890
  0.6228249416187523  0.6268425060334124  0.3801304476409655
  0.6212445953074024  0.3844983752444051  0.6308279392222715
  0.3749955165589824  0.6332038522819516  0.6106895963379060
  0.3831901680035230  0.3667007054679630  0.3869014790131757
  0.7543313406521577  0.7644895307172916  0.7369678043236618
  0.7463024581032869  0.2520103034996097  0.2606744911942300
  0.2584098205727656  0.7425781648241454  0.2373291837192610
  0.2493911042086978  0.2475750763982347  0.7631050513068303
  0.9905213598092857  0.0011541302067357  0.9816940104843113
  0.0168593895718843  0.4934683217840643  0.4571841913794970
  0.5238206057102630  0.0036405815552314  0.5146964545092914
  0.4774339460912742  0.5076713966733877  0.9872320617906070
 
  0.00000000E+00  0.00000000E+00  0.00000000E+00
  0.00000000E+00  0.00000000E+00  0.00000000E+00
  0.00000000E+00  0.00000000E+00  0.00000000E+00
  0.00000000E+00  0.00000000E+00  0.00000000E+00
  0.00000000E+00  0.00000000E+00  0.00000000E+00
  0.00000000E+00  0.00000000E+00  0.00000000E+00
  0.00000000E+00  0.00000000E+00  0.00000000E+00
  0.00000000E+00  0.00000000E+00  0.00000000E+00
  0.00000000E+00  0.00000000E+00  0.00000000E+00
  0.00000000E+00  0.00000000E+00  0.00000000E+00
  0.00000000E+00  0.00000000E+00  0.00000000E+00
  0.00000000E+00  0.00000000E+00  0.00000000E+00
  0.00000000E+00  0.00000000E+00  0.00000000E+00
  0.00000000E+00  0.00000000E+00  0.00000000E+00
  0.00000000E+00  0.00000000E+00  0.00000000E+00
  0.00000000E+00  0.00000000E+00  0.00000000E+00
  0.00000000E+00  0.00000000E+00  0.00000000E+00
  0.00000000E+00  0.00000000E+00  0.00000000E+00
  0.00000000E+00  0.00000000E+00  0.00000000E+00
  0.00000000E+00  0.00000000E+00  0.00000000E+00
  0.00000000E+00  0.00000000E+00  0.00000000E+00
  0.00000000E+00  0.00000000E+00  0.00000000E+00
  0.00000000E+00  0.00000000E+00  0.00000000E+00
  0.00000000E+00  0.00000000E+00  0.00000000E+00
  0.00000000E+00  0.00000000E+00  0.00000000E+00
  0.00000000E+00  0.00000000E+00  0.00000000E+00
  0.00000000E+00  0.00000000E+00  0.00000000E+00
  0.00000000E+00  0.00000000E+00  0.00000000E+00
  0.00000000E+00  0.00000000E+00  0.00000000E+00
  0.00000000E+00  0.00000000E+00  0.00000000E+00
  0.00000000E+00  0.00000000E+00  0.00000000E+00
  0.00000000E+00  0.00000000E+00  0.00000000E+00
  0.00000000E+00  0.00000000E+00  0.00000000E+00
  0.00000000E+00  0.00000000E+00  0.00000000E+00
  0.00000000E+00  0.00000000E+00  0.00000000E+00
  0.00000000E+00  0.00000000E+00  0.00000000E+00
  0.00000000E+00  0.00000000E+00  0.00000000E+00
  0.00000000E+00  0.00000000E+00  0.00000000E+00
  0.00000000E+00  0.00000000E+00  0.00000000E+00
  0.00000000E+00  0.00000000E+00  0.00000000E+00
  0.00000000E+00  0.00000000E+00  0.00000000E+00
  0.00000000E+00  0.00000000E+00  0.00000000E+00
  0.00000000E+00  0.00000000E+00  0.00000000E+00
  0.00000000E+00  0.00000000E+00  0.00000000E+00
  0.00000000E+00  0.00000000E+00  0.00000000E+00
  0.00000000E+00  0.00000000E+00  0.00000000E+00
  0.00000000E+00  0.00000000E+00  0.00000000E+00
  0.00000000E+00  0.00000000E+00  0.00000000E+00
  0.00000000E+00  0.00000000E+00  0.00000000E+00
  0.00000000E+00  0.00000000E+00  0.00000000E+00
  0.00000000E+00  0.00000000E+00  0.00000000E+00
  0.00000000E+00  0.00000000E+00  0.00000000E+00
