Generated by IonExplorer 2.0
1.0
       10.2794980000        0.0000000000        0.0000000000
        0.0000000000       10.2794980000        0.0000000000
        0.0000000000        0.0000000000       10.2794980000
   Li    P    S   Cl
   23    4   20    4
Direct
    0.3865550000    0.7500000000    0.1365550000
    0.3403350000    0.2500000000    0.1365550000
    0.3403350000    0.7500000000    0.6365550000
    0.6134450000    0.2500000000    0.4096650000
    0.1134450000    0.2500000000    0.3634450000
    0.1134450000    0.7500000000    0.4096650000
    0.6134450000    0.0231100000    0.6365550000
    0.6134450000    0.9768900000    0.1365550000
    0.1134450000    0.0231100000    0.1365550000
    0.1134450000    0.9768900000    0.6365550000
    0.6134450000    0.7500000000    0.9096650000
    0.6134450000    0.2500000000    0.8634450000
    0.1134450000    0.7500000000    0.8634450000
    0.1134450000    0.2500000000    0.9096650000
    0.6134450000    0.5231100000    0.1365550000
    0.6134450000    0.4768900000    0.6365550000
    0.1134450000    0.5231100000    0.6365550000
    0.1134450000    0.4768900000    0.1365550000
    0.8865550000    0.2500000000    0.1365550000
    0.8865550000    0.7500000000    0.6365550000
    0.8403350000    0.2500000000    0.6365550000
    0.8403350000    0.7500000000    0.1365550000
    0.6138400560    0.7519566600    0.3708749313
    0.8634450000    0.5000000000    0.8865550000
    0.8634450000    0.0000000000    0.3865550000
    0.3634450000    0.5000000000    0.3865550000
    0.3634450000    0.0000000000    0.8865550000
    0.9789650000    0.6155200000    0.0020750000
    0.9789650000    0.3844800000    0.7710350000
    0.7479250000    0.6155200000    0.7710350000
    0.7479250000    0.3844800000    0.0020750000
    0.9789650000    0.1155200000    0.5020750000
    0.9789650000    0.8844800000    0.2710350000
    0.7479250000    0.1155200000    0.2710350000
    0.7479250000    0.8844800000    0.5020750000
    0.4789650000    0.6155200000    0.5020750000
    0.4789650000    0.3844800000    0.2710350000
    0.2479250000    0.6155200000    0.2710350000
    0.2479250000    0.3844800000    0.5020750000
    0.4789650000    0.1155200000    0.0020750000
    0.4789650000    0.8844800000    0.7710350000
    0.2479250000    0.1155200000    0.7710350000
    0.2479250000    0.8844800000    0.0020750000
    0.6134450000    0.2500000000    0.6365550000
    0.6134450000    0.7500000000    0.1365550000
    0.1134450000    0.2500000000    0.1365550000
    0.1134450000    0.7500000000    0.6365550000
    0.3634450000    0.0000000000    0.3865550000
    0.3634450000    0.5000000000    0.8865550000
    0.8634450000    0.0000000000    0.8865550000
    0.8634450000    0.5000000000    0.3865550000
