Li24 P4 S20 Cl4                         
   1.00000000000000     
     9.6576344910394525    0.0000000000000000    0.0000000000000000
     0.0000000000000000    9.6576344910394525    0.0000000000000000
     0.0000000000000000    0.0000000000000000    9.6576344910394525
   Li   P    S    Cl
    24     4    20     4
Direct
  0.9577609602226147  0.1873029822872101  0.1746779379236056
  0.9811896443438778  0.8150719856799261  0.7778800029406920
  0.0420461341720661  0.1627731630561164  0.8307749385095242
  0.0085341032880362  0.7616672045047994  0.2111766269853249
  0.2854510969945586  0.2833649082774860  0.9876811473707408
  0.2211438372018416  0.7828628122762952  0.0081576640485330
  0.6809265906795606  0.3378031297502517  0.0459219422251613
  0.7937663545824696  0.8274133448992571  0.9828437808933461
  0.2064850828350128  0.9780672452335223  0.2194582978468856
  0.3304724242621418  0.0293348540014866  0.6626978835633722
  0.6762102777476069  0.9782645087167368  0.7077298494394462
  0.7157065001602090  0.0171658083257528  0.2932113896763914
  0.1762957173441955  0.6588388164668406  0.4662419957960627
  0.1639981413217359  0.3139376431795693  0.5400418857759537
  0.6986380256570769  0.7691367191161205  0.5267467261403801
  0.8222694103399141  0.2782166780319494  0.4894611627532982
  0.2865793041009935  0.4799033088616697  0.7801707214403130
  0.3324379296545828  0.5274807623401198  0.1871885279768525
  0.8209105019081894  0.4800604663320887  0.3073936804284721
  0.8310483189917823  0.5291498728976595  0.7013725314099787
  0.4922134344008116  0.2782296216974407  0.7884167139297832
  0.4535319580292410  0.8098447342777100  0.3323843454823229
  0.5182635581817583  0.2037345502753967  0.3414158753721572
  0.5357328409831007  0.6796439795033269  0.8335713015223259
  0.4992727570559132  0.4995852974287291  0.5009132069116796
  0.5022882333647674  0.9993928708744914  0.0111033685893369
  0.9933075516059772  0.4927513774199853  0.9963769032882608
  0.0038729467060907  0.9901097257809434  0.5027816180152174
  0.1445439589685804  0.8703295017589944  0.6060882794789377
  0.1045120359656064  0.1295162431717813  0.3782957780558059
  0.8784829062786164  0.8636175297945158  0.3861907650684405
  0.8877884546360952  0.0994909075297311  0.6435409695707200
  0.8524084592276147  0.6116094368588991  0.1030136874006648
  0.8813034580216721  0.3547788096112268  0.8816292877191488
  0.1080837080981058  0.6175911151305209  0.8667560821221749
  0.1156218849600113  0.3851682336994236  0.1327037845744622
  0.6414293113612044  0.1212632201685405  0.9065367921117846
  0.6060736151128102  0.8614821025762848  0.1341774817285928
  0.3829751490517925  0.1213407384800426  0.1383537497336954
  0.3896910289839002  0.8886862110127385  0.8683853453997483
  0.6107822418983535  0.6120169017357985  0.3596729098186064
  0.6308948027845065  0.3822539299180036  0.6200192647187828
  0.3889511777800027  0.6360798671595418  0.6208798895050585
  0.3589969702089588  0.3814295333218002  0.3929407651628252
  0.7518096395620043  0.7527725883992991  0.7571820578122429
  0.7439834309968844  0.2515287580861699  0.2638908585221891
  0.2405996894986071  0.7440393467580575  0.2438163113964245
  0.2571941582290274  0.2434923335551722  0.7531149670546308
  0.0128422140864010  0.9700474194655401  0.0151093939161175
  0.9828208454023756  0.4859322542585440  0.5030257444052462
  0.5292970619909366  0.9914823361535942  0.4960815939873219
  0.4685440907604947  0.4729168799027627  0.9747512444807902
 
  0.00000000E+00  0.00000000E+00  0.00000000E+00
  0.00000000E+00  0.00000000E+00  0.00000000E+00
  0.00000000E+00  0.00000000E+00  0.00000000E+00
  0.00000000E+00  0.00000000E+00  0.00000000E+00
  0.00000000E+00  0.00000000E+00  0.00000000E+00
  0.00000000E+00  0.00000000E+00  0.00000000E+00
  0.00000000E+00  0.00000000E+00  0.00000000E+00
  0.00000000E+00  0.00000000E+00  0.00000000E+00
  0.00000000E+00  0.00000000E+00  0.00000000E+00
  0.00000000E+00  0.00000000E+00  0.00000000E+00
  0.00000000E+00  0.00000000E+00  0.00000000E+00
  0.00000000E+00  0.00000000E+00  0.00000000E+00
  0.00000000E+00  0.00000000E+00  0.00000000E+00
  0.00000000E+00  0.00000000E+00  0.00000000E+00
  0.00000000E+00  0.00000000E+00  0.00000000E+00
  0.00000000E+00  0.00000000E+00  0.00000000E+00
  0.00000000E+00  0.00000000E+00  0.00000000E+00
  0.00000000E+00  0.00000000E+00  0.00000000E+00
  0.00000000E+00  0.00000000E+00  0.00000000E+00
  0.00000000E+00  0.00000000E+00  0.00000000E+00
  0.00000000E+00  0.00000000E+00  0.00000000E+00
  0.00000000E+00  0.00000000E+00  0.00000000E+00
  0.00000000E+00  0.00000000E+00  0.00000000E+00
  0.00000000E+00  0.00000000E+00  0.00000000E+00
  0.00000000E+00  0.00000000E+00  0.00000000E+00
  0.00000000E+00  0.00000000E+00  0.00000000E+00
  0.00000000E+00  0.00000000E+00  0.00000000E+00
  0.00000000E+00  0.00000000E+00  0.00000000E+00
  0.00000000E+00  0.00000000E+00  0.00000000E+00
  0.00000000E+00  0.00000000E+00  0.00000000E+00
  0.00000000E+00  0.00000000E+00  0.00000000E+00
  0.00000000E+00  0.00000000E+00  0.00000000E+00
  0.00000000E+00  0.00000000E+00  0.00000000E+00
  0.00000000E+00  0.00000000E+00  0.00000000E+00
  0.00000000E+00  0.00000000E+00  0.00000000E+00
  0.00000000E+00  0.00000000E+00  0.00000000E+00
  0.00000000E+00  0.00000000E+00  0.00000000E+00
  0.00000000E+00  0.00000000E+00  0.00000000E+00
  0.00000000E+00  0.00000000E+00  0.00000000E+00
  0.00000000E+00  0.00000000E+00  0.00000000E+00
  0.00000000E+00  0.00000000E+00  0.00000000E+00
  0.00000000E+00  0.00000000E+00  0.00000000E+00
  0.00000000E+00  0.00000000E+00  0.00000000E+00
  0.00000000E+00  0.00000000E+00  0.00000000E+00
  0.00000000E+00  0.00000000E+00  0.00000000E+00
  0.00000000E+00  0.00000000E+00  0.00000000E+00
  0.00000000E+00  0.00000000E+00  0.00000000E+00
  0.00000000E+00  0.00000000E+00  0.00000000E+00
  0.00000000E+00  0.00000000E+00  0.00000000E+00
  0.00000000E+00  0.00000000E+00  0.00000000E+00
  0.00000000E+00  0.00000000E+00  0.00000000E+00
  0.00000000E+00  0.00000000E+00  0.00000000E+00
