Li24 P4 S20 Cl4                         
   1.00000000000000     
     9.6576344910394525    0.0000000000000000    0.0000000000000000
     0.0000000000000000    9.6576344910394525    0.0000000000000000
     0.0000000000000000    0.0000000000000000    9.6576344910394525
   Li   P    S    Cl
    24     4    20     4
Direct
  0.9577614529098071  0.1872990242633321  0.1746820242617773
  0.9811886470044868  0.8150761914366598  0.7778850107347282
  0.0420410688703186  0.1627780946328770  0.8307774948866040
  0.0085370944699292  0.7616815708243365  0.2111670525651661
  0.2854501950913075  0.2833629417608847  0.9876768456020102
  0.2211411610389149  0.7828700014845893  0.0081581640971891
  0.6809216638931446  0.3378003020263165  0.0459217646510410
  0.7937655035629092  0.8274050774621102  0.9828435320087010
  0.2064967154150992  0.9780681283882657  0.2194702656554242
  0.3304760078158679  0.0293339798300138  0.6627002975416474
  0.6762113456480918  0.9782629905101885  0.7077305392749267
  0.7157095176273955  0.0171665132625165  0.2932181648574286
  0.1762891089418304  0.6588424153682055  0.4662420766495359
  0.1640019895809175  0.3139423828941545  0.5400377190441006
  0.6986405957190769  0.7691382603893757  0.5267474142538688
  0.8222670937709182  0.2782183533317024  0.4894633186741189
  0.2865766474878697  0.4799026355207232  0.7801669282124664
  0.3324308627481400  0.5274789133015290  0.1871823018084697
  0.8209130603659602  0.4800608655033329  0.3073971847471384
  0.8310511166910572  0.5291519600696191  0.7013697532959355
  0.4922103557527322  0.2782311293296544  0.7884140545991585
  0.4535358131252138  0.8098429750321259  0.3323821973522740
  0.5182635160790028  0.2037317532746243  0.3414144295400519
  0.5357320280014406  0.6796378137154804  0.8335655877842569
  0.4992705328359079  0.4995854353092639  0.5009116472387660
  0.5022890110726905  0.9993924729854413  0.0111020669373687
  0.9933062807254061  0.4927504289150164  0.9963773335414885
  0.0038765987600726  0.9901101119364242  0.5027877404669567
  0.1445372356191115  0.8703358120651643  0.6060916771238780
  0.1045117477293402  0.1295091610994064  0.3783043670188775
  0.8784903120537209  0.8636195981451209  0.3861957636218065
  0.8877927938919470  0.0994856970488982  0.6435363351769610
  0.8524182824664805  0.6116064243883628  0.1030168870982493
  0.8813034256465428  0.3547871713093542  0.8816342583514114
  0.1080801001553624  0.6175880117079089  0.8667654230631925
  0.1156163470949068  0.3851683979581964  0.1326946415071859
  0.6414187728280893  0.1212583104975451  0.9065361461855090
  0.6060747307048118  0.8614894389558714  0.1341748978243373
  0.3829787717269184  0.1213358233918100  0.1383450836993205
  0.3896959292044642  0.8886857063434377  0.8683928227618196
  0.6107800706283086  0.6120148451443868  0.3596776751202384
  0.6308859761383374  0.3822618998388378  0.6200136760548887
  0.3889504393954013  0.6360721126255484  0.6208700761272610
  0.3590043531103930  0.3814320117812002  0.3929376522135115
  0.7518093480656063  0.7527736903657356  0.7571818854380439
  0.7439858270056021  0.2515283673728774  0.2638926752768427
  0.2406008568111417  0.7440406205856291  0.2438151717976069
  0.2571917440859153  0.2434931054602600  0.7531132979120230
  0.0128406629871236  0.9700425007206803  0.0151122113001350
  0.9828210498543868  0.4859301512921235  0.5030268797108803
  0.5293023228406071  0.9914804102049501  0.4960815072924945
  0.4685378449506601  0.4729125789377946  0.9747451080407572
 
  0.00000000E+00  0.00000000E+00  0.00000000E+00
  0.00000000E+00  0.00000000E+00  0.00000000E+00
  0.00000000E+00  0.00000000E+00  0.00000000E+00
  0.00000000E+00  0.00000000E+00  0.00000000E+00
  0.00000000E+00  0.00000000E+00  0.00000000E+00
  0.00000000E+00  0.00000000E+00  0.00000000E+00
  0.00000000E+00  0.00000000E+00  0.00000000E+00
  0.00000000E+00  0.00000000E+00  0.00000000E+00
  0.00000000E+00  0.00000000E+00  0.00000000E+00
  0.00000000E+00  0.00000000E+00  0.00000000E+00
  0.00000000E+00  0.00000000E+00  0.00000000E+00
  0.00000000E+00  0.00000000E+00  0.00000000E+00
  0.00000000E+00  0.00000000E+00  0.00000000E+00
  0.00000000E+00  0.00000000E+00  0.00000000E+00
  0.00000000E+00  0.00000000E+00  0.00000000E+00
  0.00000000E+00  0.00000000E+00  0.00000000E+00
  0.00000000E+00  0.00000000E+00  0.00000000E+00
  0.00000000E+00  0.00000000E+00  0.00000000E+00
  0.00000000E+00  0.00000000E+00  0.00000000E+00
  0.00000000E+00  0.00000000E+00  0.00000000E+00
  0.00000000E+00  0.00000000E+00  0.00000000E+00
  0.00000000E+00  0.00000000E+00  0.00000000E+00
  0.00000000E+00  0.00000000E+00  0.00000000E+00
  0.00000000E+00  0.00000000E+00  0.00000000E+00
  0.00000000E+00  0.00000000E+00  0.00000000E+00
  0.00000000E+00  0.00000000E+00  0.00000000E+00
  0.00000000E+00  0.00000000E+00  0.00000000E+00
  0.00000000E+00  0.00000000E+00  0.00000000E+00
  0.00000000E+00  0.00000000E+00  0.00000000E+00
  0.00000000E+00  0.00000000E+00  0.00000000E+00
  0.00000000E+00  0.00000000E+00  0.00000000E+00
  0.00000000E+00  0.00000000E+00  0.00000000E+00
  0.00000000E+00  0.00000000E+00  0.00000000E+00
  0.00000000E+00  0.00000000E+00  0.00000000E+00
  0.00000000E+00  0.00000000E+00  0.00000000E+00
  0.00000000E+00  0.00000000E+00  0.00000000E+00
  0.00000000E+00  0.00000000E+00  0.00000000E+00
  0.00000000E+00  0.00000000E+00  0.00000000E+00
  0.00000000E+00  0.00000000E+00  0.00000000E+00
  0.00000000E+00  0.00000000E+00  0.00000000E+00
  0.00000000E+00  0.00000000E+00  0.00000000E+00
  0.00000000E+00  0.00000000E+00  0.00000000E+00
  0.00000000E+00  0.00000000E+00  0.00000000E+00
  0.00000000E+00  0.00000000E+00  0.00000000E+00
  0.00000000E+00  0.00000000E+00  0.00000000E+00
  0.00000000E+00  0.00000000E+00  0.00000000E+00
  0.00000000E+00  0.00000000E+00  0.00000000E+00
  0.00000000E+00  0.00000000E+00  0.00000000E+00
  0.00000000E+00  0.00000000E+00  0.00000000E+00
  0.00000000E+00  0.00000000E+00  0.00000000E+00
  0.00000000E+00  0.00000000E+00  0.00000000E+00
  0.00000000E+00  0.00000000E+00  0.00000000E+00
