Li24 P4 S20 Cl4                         
   1.00000000000000     
     9.6609735871524087    0.0000000000000000    0.0000000000000000
     0.0000000000000000    9.6609735871524087    0.0000000000000000
     0.0000000000000000    0.0000000000000000    9.6609735871524087
   Li   P    S    Cl
    24     4    20     4
Direct
  0.9609719403814401  0.1850577568960015  0.1525730837856870
  0.0029449448142217  0.6959242027413207  0.7120371431966664
  0.0575653286884265  0.3390702259261437  0.6980303534494803
  0.0221865459845911  0.8385717004054875  0.2172090505467886
  0.8532275807098414  0.9775891510394010  0.7870974713660309
  0.2116438693868023  0.7953013016642224  0.0178443840112769
  0.6915602706200962  0.2959507680017658  0.0054584179668774
  0.8048651132262206  0.7983272512489391  0.9899560212842121
  0.3139097940018685  0.9884715048681778  0.2777393086469746
  0.1977063681296447  0.0457563829719469  0.8233347411900431
  0.5540728299891913  0.8475194084890203  0.6485041373038850
  0.6696837039379778  0.0398091629066338  0.3222279073538457
  0.2964794576032555  0.7999837709060205  0.4850613860360339
  0.2822332483566934  0.2118815694851184  0.5117359289624767
  0.8071631623307869  0.6976718086332430  0.5168245362407891
  0.8176200661736422  0.3278865249125161  0.4540867535716568
  0.3053880364441662  0.3729185401507537  0.9429299270342590
  0.1501661231734608  0.5458765688401807  0.3249494397845475
  0.7149245212385126  0.4924420929868165  0.2110006189156752
  0.7776033564456661  0.5108463292948492  0.7396224871811494
  0.4904019251334740  0.1858137829401953  0.6950039436034221
  0.4587062471380804  0.6795593290541527  0.1914008767515557
  0.5045113599534657  0.2889378460959893  0.2279242234762217
  0.5365658561469451  0.6612690021593162  0.8494765411726726
  0.4970454272443935  0.5108248337065847  0.5071718226095802
  0.5098107776117735  0.9995156562913913  0.9925168233811203
  0.0163079228753077  0.4985208024257410  0.0123123950648690
  0.9980317080814208  0.0161501092494032  0.4984995367682637
  0.1181141295443365  0.8966986949435745  0.6284332008750579
  0.1134573695139759  0.1224801154321773  0.3562712373722453
  0.8607426189779405  0.8952546243594172  0.3895705011035587
  0.8900953645529579  0.1527696236387111  0.6184802221536824
  0.8994203563160562  0.6281810580608159  0.1356052027439355
  0.8959460059569034  0.3685680758581971  0.8924130361769587
  0.1489662512141881  0.6000704994602987  0.8824716360111647
  0.1311566097607152  0.3746728357046820  0.1379875457234735
  0.6464040863416971  0.1021333282245322  0.8659056395623612
  0.6139707452537148  0.8770804189641362  0.1310306918957712
  0.3754766373566363  0.1327043348619061  0.0885179072237520
  0.3924851910965144  0.8739461526568971  0.8651278445236007
  0.6147195671147391  0.6385629260420073  0.3823599823663691
  0.6249665597667999  0.3759856789929549  0.6101731047545033
  0.3924589680296806  0.6351006760763812  0.6425971062687876
  0.3602925192846635  0.4073404342521332  0.3823988706669565
  0.7592346855965846  0.7477707623450205  0.7552328251080755
  0.7407244344362908  0.2559840438724584  0.2381912034302533
  0.2441846857331567  0.7611062748765212  0.2540825965427549
  0.2707667053440387  0.2529714739817969  0.7409484340705448
  0.0058272681257382  0.9705587926476209  0.9963138043390778
  0.9797144168277454  0.5190756823794113  0.5270235316469910
  0.4710556437727718  0.0155811028065087  0.4835491065017669
  0.5244157742611927  0.4924553752700146  0.0256484582817388
 
  0.00000000E+00  0.00000000E+00  0.00000000E+00
  0.00000000E+00  0.00000000E+00  0.00000000E+00
  0.00000000E+00  0.00000000E+00  0.00000000E+00
  0.00000000E+00  0.00000000E+00  0.00000000E+00
  0.00000000E+00  0.00000000E+00  0.00000000E+00
  0.00000000E+00  0.00000000E+00  0.00000000E+00
  0.00000000E+00  0.00000000E+00  0.00000000E+00
  0.00000000E+00  0.00000000E+00  0.00000000E+00
  0.00000000E+00  0.00000000E+00  0.00000000E+00
  0.00000000E+00  0.00000000E+00  0.00000000E+00
  0.00000000E+00  0.00000000E+00  0.00000000E+00
  0.00000000E+00  0.00000000E+00  0.00000000E+00
  0.00000000E+00  0.00000000E+00  0.00000000E+00
  0.00000000E+00  0.00000000E+00  0.00000000E+00
  0.00000000E+00  0.00000000E+00  0.00000000E+00
  0.00000000E+00  0.00000000E+00  0.00000000E+00
  0.00000000E+00  0.00000000E+00  0.00000000E+00
  0.00000000E+00  0.00000000E+00  0.00000000E+00
  0.00000000E+00  0.00000000E+00  0.00000000E+00
  0.00000000E+00  0.00000000E+00  0.00000000E+00
  0.00000000E+00  0.00000000E+00  0.00000000E+00
  0.00000000E+00  0.00000000E+00  0.00000000E+00
  0.00000000E+00  0.00000000E+00  0.00000000E+00
  0.00000000E+00  0.00000000E+00  0.00000000E+00
  0.00000000E+00  0.00000000E+00  0.00000000E+00
  0.00000000E+00  0.00000000E+00  0.00000000E+00
  0.00000000E+00  0.00000000E+00  0.00000000E+00
  0.00000000E+00  0.00000000E+00  0.00000000E+00
  0.00000000E+00  0.00000000E+00  0.00000000E+00
  0.00000000E+00  0.00000000E+00  0.00000000E+00
  0.00000000E+00  0.00000000E+00  0.00000000E+00
  0.00000000E+00  0.00000000E+00  0.00000000E+00
  0.00000000E+00  0.00000000E+00  0.00000000E+00
  0.00000000E+00  0.00000000E+00  0.00000000E+00
  0.00000000E+00  0.00000000E+00  0.00000000E+00
  0.00000000E+00  0.00000000E+00  0.00000000E+00
  0.00000000E+00  0.00000000E+00  0.00000000E+00
  0.00000000E+00  0.00000000E+00  0.00000000E+00
  0.00000000E+00  0.00000000E+00  0.00000000E+00
  0.00000000E+00  0.00000000E+00  0.00000000E+00
  0.00000000E+00  0.00000000E+00  0.00000000E+00
  0.00000000E+00  0.00000000E+00  0.00000000E+00
  0.00000000E+00  0.00000000E+00  0.00000000E+00
  0.00000000E+00  0.00000000E+00  0.00000000E+00
  0.00000000E+00  0.00000000E+00  0.00000000E+00
  0.00000000E+00  0.00000000E+00  0.00000000E+00
  0.00000000E+00  0.00000000E+00  0.00000000E+00
  0.00000000E+00  0.00000000E+00  0.00000000E+00
  0.00000000E+00  0.00000000E+00  0.00000000E+00
  0.00000000E+00  0.00000000E+00  0.00000000E+00
  0.00000000E+00  0.00000000E+00  0.00000000E+00
  0.00000000E+00  0.00000000E+00  0.00000000E+00
