Li24 P4 S20 Cl4                         
   1.00000000000000     
     9.6609735871524087    0.0000000000000000    0.0000000000000000
     0.0000000000000000    9.6609735871524087    0.0000000000000000
     0.0000000000000000    0.0000000000000000    9.6609735871524087
   Li   P    S    Cl
    24     4    20     4
Direct
  0.9609693177794085  0.1850554699846398  0.1525774401059508
  0.0029481083899014  0.6959337304980338  0.7120424520160284
  0.0575620484865595  0.3390611949471207  0.6980345766229021
  0.0221867439284367  0.8385667784837167  0.2172070630812968
  0.8532248378238592  0.9775918847197858  0.7871021846214887
  0.2116464291658318  0.7952947787493159  0.0178469926545759
  0.6915567861082863  0.2959531588728694  0.0054553820846124
  0.8048631902642427  0.7983234014275951  0.9899560678562835
  0.3139035936598447  0.9884736804554066  0.2777400153876073
  0.1977107104713340  0.0457486899483399  0.8233368564044810
  0.5540690232277257  0.8475288768466882  0.6485201019399440
  0.6696789868948159  0.0398114701428511  0.3222293939780982
  0.2964866713787089  0.7999890438301378  0.4850609309621916
  0.2822343129785096  0.2118823798001088  0.5117389137351864
  0.8071621239215148  0.6976860569760674  0.5168237175446535
  0.8176085950326382  0.3278812564005449  0.4540886464014804
  0.3053834074576045  0.3729147199444114  0.9429325094278056
  0.1501690507606526  0.5458753712987203  0.3249507773217957
  0.7149262677068364  0.4924398214785199  0.2109982787479723
  0.7776409693556943  0.5108479560643175  0.7395830824840530
  0.4903999441802256  0.1858185401926420  0.6950063747668622
  0.4587095446259397  0.6795657305046774  0.1914004206590718
  0.5045078906610598  0.2889459894633788  0.2279142841315860
  0.5365752241120347  0.6612490369520430  0.8494666980548047
  0.4970520323178249  0.5108321314824593  0.5071654373517802
  0.5098059599133649  0.9995136714955777  0.9925150818923356
  0.0163032043312370  0.4985153029643214  0.0123120043993694
  0.9980365668997138  0.0161516040054579  0.4985003957569845
  0.1181162113458356  0.8967005764016704  0.6284286611469909
  0.1134568009823127  0.1224863121239466  0.3562747162927167
  0.8607443784751823  0.8952605220593952  0.3895638718609291
  0.8900924195909354  0.1527663378693376  0.6184806639939211
  0.8994210117083270  0.6281801504568350  0.1356053651090861
  0.8959423893519443  0.3685743097143188  0.8924138687598742
  0.1489658328311236  0.6000683953921708  0.8824712918806767
  0.1311529843636592  0.3746716231768090  0.1379884051817797
  0.6464005939459341  0.1021327956862166  0.8659048138394994
  0.6139744155875277  0.8770843713580945  0.1310319554754074
  0.3754744823109490  0.1327008745526896  0.0885173955274610
  0.3924906942565656  0.8739366811234319  0.8651351333956256
  0.6147219572605991  0.6385569200952190  0.3823585646950391
  0.6249649521719007  0.3759889246348749  0.6101781121784668
  0.3924593747637104  0.6351049611780297  0.6425931143662496
  0.3602936021048464  0.4073388719489728  0.3823984419831206
  0.7592367835109570  0.7477715940863945  0.7552325611441830
  0.7407192258331889  0.2559841469066271  0.2381888142199386
  0.2441853652767634  0.7611067676966741  0.2540852463044558
  0.2707635318462351  0.2529666489891653  0.7409503710225778
  0.0058284698600488  0.9705556983117560  0.9963137615417423
  0.9797042330499721  0.5190774673815852  0.5270360992746177
  0.4710556984874188  0.0155811844701574  0.4835510463601977
  0.5244071292506618  0.4924525064553862  0.0256545940536839
 
  0.00000000E+00  0.00000000E+00  0.00000000E+00
  0.00000000E+00  0.00000000E+00  0.00000000E+00
  0.00000000E+00  0.00000000E+00  0.00000000E+00
  0.00000000E+00  0.00000000E+00  0.00000000E+00
  0.00000000E+00  0.00000000E+00  0.00000000E+00
  0.00000000E+00  0.00000000E+00  0.00000000E+00
  0.00000000E+00  0.00000000E+00  0.00000000E+00
  0.00000000E+00  0.00000000E+00  0.00000000E+00
  0.00000000E+00  0.00000000E+00  0.00000000E+00
  0.00000000E+00  0.00000000E+00  0.00000000E+00
  0.00000000E+00  0.00000000E+00  0.00000000E+00
  0.00000000E+00  0.00000000E+00  0.00000000E+00
  0.00000000E+00  0.00000000E+00  0.00000000E+00
  0.00000000E+00  0.00000000E+00  0.00000000E+00
  0.00000000E+00  0.00000000E+00  0.00000000E+00
  0.00000000E+00  0.00000000E+00  0.00000000E+00
  0.00000000E+00  0.00000000E+00  0.00000000E+00
  0.00000000E+00  0.00000000E+00  0.00000000E+00
  0.00000000E+00  0.00000000E+00  0.00000000E+00
  0.00000000E+00  0.00000000E+00  0.00000000E+00
  0.00000000E+00  0.00000000E+00  0.00000000E+00
  0.00000000E+00  0.00000000E+00  0.00000000E+00
  0.00000000E+00  0.00000000E+00  0.00000000E+00
  0.00000000E+00  0.00000000E+00  0.00000000E+00
  0.00000000E+00  0.00000000E+00  0.00000000E+00
  0.00000000E+00  0.00000000E+00  0.00000000E+00
  0.00000000E+00  0.00000000E+00  0.00000000E+00
  0.00000000E+00  0.00000000E+00  0.00000000E+00
  0.00000000E+00  0.00000000E+00  0.00000000E+00
  0.00000000E+00  0.00000000E+00  0.00000000E+00
  0.00000000E+00  0.00000000E+00  0.00000000E+00
  0.00000000E+00  0.00000000E+00  0.00000000E+00
  0.00000000E+00  0.00000000E+00  0.00000000E+00
  0.00000000E+00  0.00000000E+00  0.00000000E+00
  0.00000000E+00  0.00000000E+00  0.00000000E+00
  0.00000000E+00  0.00000000E+00  0.00000000E+00
  0.00000000E+00  0.00000000E+00  0.00000000E+00
  0.00000000E+00  0.00000000E+00  0.00000000E+00
  0.00000000E+00  0.00000000E+00  0.00000000E+00
  0.00000000E+00  0.00000000E+00  0.00000000E+00
  0.00000000E+00  0.00000000E+00  0.00000000E+00
  0.00000000E+00  0.00000000E+00  0.00000000E+00
  0.00000000E+00  0.00000000E+00  0.00000000E+00
  0.00000000E+00  0.00000000E+00  0.00000000E+00
  0.00000000E+00  0.00000000E+00  0.00000000E+00
  0.00000000E+00  0.00000000E+00  0.00000000E+00
  0.00000000E+00  0.00000000E+00  0.00000000E+00
  0.00000000E+00  0.00000000E+00  0.00000000E+00
  0.00000000E+00  0.00000000E+00  0.00000000E+00
  0.00000000E+00  0.00000000E+00  0.00000000E+00
  0.00000000E+00  0.00000000E+00  0.00000000E+00
  0.00000000E+00  0.00000000E+00  0.00000000E+00
