Li24 P4 S20 Cl4                         
   1.00000000000000     
     9.6690831602891052    0.0000000000000000    0.0000000000000000
     0.0000000000000000    9.6690831602891052    0.0000000000000000
     0.0000000000000000    0.0000000000000000    9.6690831602891052
   Li   P    S    Cl
    24     4    20     4
Direct
  0.9905090293894605  0.1800487349736107  0.2055289402680191
  0.9682326820249666  0.6803861707016039  0.6821987668766200
  0.0471806092575528  0.3291014025266015  0.6413102243310341
  0.0208780521038928  0.6985776501644391  0.2884794553110265
  0.2141361044675855  0.2267741271826055  0.9756977232432320
  0.1824978916478418  0.8350082212034609  0.0359314023732748
  0.7950433634123233  0.2122927937860951  0.0097172780242766
  0.8314008911835028  0.8021315202199933  0.9873595042879986
  0.3093390737594842  0.9859985840523671  0.3025007010582798
  0.1763183635580321  0.0410382842671999  0.7762973602814034
  0.8220550574717749  0.9801458900062658  0.7856981611837049
  0.6933080901418738  0.0201589381293990  0.2662841517344666
  0.2195787127602708  0.6779367305521415  0.4760311515360881
  0.3469749855604872  0.1995597145771128  0.5307299246492090
  0.6898519389246948  0.8176838896052651  0.5391467730810902
  0.6932233086029385  0.1952539805456079  0.4716214513370074
  0.2925723413634453  0.4971493725957295  0.7962183619703429
  0.3167918908260924  0.5431848727540761  0.1665513696152415
  0.8363360866899082  0.4581476596331921  0.3298790934764101
  0.7169513251723433  0.5208772053263815  0.8117195872825578
  0.4835058482722113  0.2984399230457858  0.8098562344749491
  0.4857302121082649  0.7769476425795642  0.2916689300140493
  0.5488823449688237  0.3338952690222122  0.1800555721881958
  0.5286549527360087  0.7241980134205189  0.8400854084790004
  0.5161295030029963  0.5082430755890898  0.5025041217650221
  0.4977921124981446  0.0048049419070851  0.9903399598762143
  0.0030752592621512  0.5007591314814448  0.9998910012192233
  0.0076750019254814  0.0024772616664736  0.4921686270770385
  0.1210040552084692  0.8714495517935134  0.6135816365337600
  0.1396853805523489  0.1341899805512740  0.3890202157972678
  0.8814806077890508  0.8886242591758226  0.3655038828963582
  0.8890658165503378  0.1315814908624741  0.6127668634637562
  0.8625343544283410  0.6031601791527567  0.1213168445076662
  0.9046984377890593  0.3742101740719571  0.8610740851889815
  0.1178329897648696  0.6413792278293282  0.8888879753920971
  0.1248142063329262  0.3868308754730516  0.1320140784083710
  0.6282798866276483  0.1143980645294203  0.8635659840332001
  0.6133026753371794  0.8622307291811274  0.0990711902547796
  0.3942148620074675  0.1370988379688676  0.1201419675637523
  0.3591823853628666  0.8988200061597366  0.8712074757897570
  0.6488333974546635  0.6229254465382059  0.3835926461586890
  0.6299460677378724  0.3762490173402359  0.6238376755979854
  0.4055220145197179  0.6411576587794509  0.6261961497387981
  0.3900578472429844  0.3959590744505889  0.3731214372358783
  0.7559727057470269  0.7530718282336391  0.7620953248115030
  0.7625548493301272  0.2459030856055358  0.2433073587990976
  0.2521906625227203  0.7587736687766592  0.2512858793498203
  0.2570021779552374  0.2648692394465761  0.7452759728555473
  0.0001763024681560  0.0175193008621709  0.9871710396444661
  0.0169085537880964  0.5287540385891151  0.4910885617691457
  0.5208682630281012  0.0015324975088185  0.4550652388170591
  0.4940283630305354  0.4949386587869024  0.9727624614984548
 
  0.00000000E+00  0.00000000E+00  0.00000000E+00
  0.00000000E+00  0.00000000E+00  0.00000000E+00
  0.00000000E+00  0.00000000E+00  0.00000000E+00
  0.00000000E+00  0.00000000E+00  0.00000000E+00
  0.00000000E+00  0.00000000E+00  0.00000000E+00
  0.00000000E+00  0.00000000E+00  0.00000000E+00
  0.00000000E+00  0.00000000E+00  0.00000000E+00
  0.00000000E+00  0.00000000E+00  0.00000000E+00
  0.00000000E+00  0.00000000E+00  0.00000000E+00
  0.00000000E+00  0.00000000E+00  0.00000000E+00
  0.00000000E+00  0.00000000E+00  0.00000000E+00
  0.00000000E+00  0.00000000E+00  0.00000000E+00
  0.00000000E+00  0.00000000E+00  0.00000000E+00
  0.00000000E+00  0.00000000E+00  0.00000000E+00
  0.00000000E+00  0.00000000E+00  0.00000000E+00
  0.00000000E+00  0.00000000E+00  0.00000000E+00
  0.00000000E+00  0.00000000E+00  0.00000000E+00
  0.00000000E+00  0.00000000E+00  0.00000000E+00
  0.00000000E+00  0.00000000E+00  0.00000000E+00
  0.00000000E+00  0.00000000E+00  0.00000000E+00
  0.00000000E+00  0.00000000E+00  0.00000000E+00
  0.00000000E+00  0.00000000E+00  0.00000000E+00
  0.00000000E+00  0.00000000E+00  0.00000000E+00
  0.00000000E+00  0.00000000E+00  0.00000000E+00
  0.00000000E+00  0.00000000E+00  0.00000000E+00
  0.00000000E+00  0.00000000E+00  0.00000000E+00
  0.00000000E+00  0.00000000E+00  0.00000000E+00
  0.00000000E+00  0.00000000E+00  0.00000000E+00
  0.00000000E+00  0.00000000E+00  0.00000000E+00
  0.00000000E+00  0.00000000E+00  0.00000000E+00
  0.00000000E+00  0.00000000E+00  0.00000000E+00
  0.00000000E+00  0.00000000E+00  0.00000000E+00
  0.00000000E+00  0.00000000E+00  0.00000000E+00
  0.00000000E+00  0.00000000E+00  0.00000000E+00
  0.00000000E+00  0.00000000E+00  0.00000000E+00
  0.00000000E+00  0.00000000E+00  0.00000000E+00
  0.00000000E+00  0.00000000E+00  0.00000000E+00
  0.00000000E+00  0.00000000E+00  0.00000000E+00
  0.00000000E+00  0.00000000E+00  0.00000000E+00
  0.00000000E+00  0.00000000E+00  0.00000000E+00
  0.00000000E+00  0.00000000E+00  0.00000000E+00
  0.00000000E+00  0.00000000E+00  0.00000000E+00
  0.00000000E+00  0.00000000E+00  0.00000000E+00
  0.00000000E+00  0.00000000E+00  0.00000000E+00
  0.00000000E+00  0.00000000E+00  0.00000000E+00
  0.00000000E+00  0.00000000E+00  0.00000000E+00
  0.00000000E+00  0.00000000E+00  0.00000000E+00
  0.00000000E+00  0.00000000E+00  0.00000000E+00
  0.00000000E+00  0.00000000E+00  0.00000000E+00
  0.00000000E+00  0.00000000E+00  0.00000000E+00
  0.00000000E+00  0.00000000E+00  0.00000000E+00
  0.00000000E+00  0.00000000E+00  0.00000000E+00
