Li24 P4 S20 Cl4                         
   1.00000000000000     
     9.6690831602891052    0.0000000000000000    0.0000000000000000
     0.0000000000000000    9.6690831602891052    0.0000000000000000
     0.0000000000000000    0.0000000000000000    9.6690831602891052
   Li   P    S    Cl
    24     4    20     4
Direct
  0.9905095468848444  0.1800569833454020  0.2055321355035886
  0.9682308721676591  0.6803845102422272  0.6821987858115222
  0.0471787093314475  0.3291016163513376  0.6413151515040667
  0.0208790873143343  0.6985799206375134  0.2884815447553208
  0.2141237000752696  0.2267666611027011  0.9756963183561851
  0.1824982712268977  0.8350083863894611  0.0359326296897819
  0.7950457969758205  0.2122900231811258  0.0097174606504637
  0.8313956561884481  0.8021302436677686  0.9873605394094582
  0.3093389692838429  0.9859993644009322  0.3024976072725210
  0.1763316673337911  0.0410344337139819  0.7762918255646412
  0.8220605248374397  0.9801452909402286  0.7856977134408751
  0.6933098620333240  0.0201603951637992  0.2662845627490640
  0.2195767664112651  0.6779392372792117  0.4760317288490725
  0.3469719798619764  0.1995632263213238  0.5307283777830563
  0.6898521811975300  0.8176856107655439  0.5391475038361833
  0.6932210462369781  0.1952561914526854  0.4716195130532910
  0.2925723901807515  0.4971468247310398  0.7962223728745315
  0.3167949936276813  0.5431859795346625  0.1665527439345240
  0.8363336401411274  0.4581493326928623  0.3298802228929105
  0.7169524775317768  0.5208767955583866  0.8117196558867050
  0.4835049784527996  0.2984369867862853  0.8098579866643476
  0.4857303085902629  0.7769489535608329  0.2916718511495517
  0.5488815113776653  0.3338914279004825  0.1800517551766561
  0.5286540605222854  0.7241954610908792  0.8400774216034392
  0.5161259887327887  0.5082369417431565  0.5025014509256778
  0.4977959304078823  0.0048057289499255  0.9903423717661184
  0.0030768141538218  0.5007578847124989  0.9998982886713748
  0.0076718839847842  0.0024716249763159  0.4921666648238627
  0.1209975274072619  0.8714511556163913  0.6135814380356237
  0.1396854003843586  0.1341881707161150  0.3890197228247061
  0.8814822994134346  0.8886275816795788  0.3655085744715407
  0.8890625547933908  0.1315829921240734  0.6127657125334594
  0.8625398657597785  0.6031629308078621  0.1213187465819487
  0.9047000308958246  0.3742136925819466  0.8610794646457123
  0.1178361256059333  0.6413838239560192  0.8888866115150904
  0.1248144542128742  0.3868378817527542  0.1320084353866307
  0.6282827171247476  0.1143970041260047  0.8635644931168116
  0.6133015636509356  0.8622340025749864  0.0990732100838372
  0.3942155952212971  0.1370943931570210  0.1201328997349265
  0.3591850506012904  0.8988156529476896  0.8712089268021757
  0.6488289185016782  0.6229243361189063  0.3835991091263296
  0.6299449233368861  0.3762486025215779  0.6238392771597177
  0.4055185049081800  0.6411531897465608  0.6261953950650962
  0.3900619764761686  0.3959585969401829  0.3731208901633494
  0.7559727679193173  0.7530721735303487  0.7620961205298116
  0.7625540717994284  0.2459039313163913  0.2433060671787715
  0.2521915738455647  0.7587738498005834  0.2512868865569970
  0.2570024179560590  0.2648684566257131  0.7452767573201271
  0.0001787467597296  0.0175225249691735  0.9871705903578629
  0.0169078050480138  0.5287555566041675  0.4910897434556176
  0.5208688229141174  0.0015341170231764  0.4550600937434197
  0.4940285660675912  0.4949372387527546  0.9727578321328139
 
  0.00000000E+00  0.00000000E+00  0.00000000E+00
  0.00000000E+00  0.00000000E+00  0.00000000E+00
  0.00000000E+00  0.00000000E+00  0.00000000E+00
  0.00000000E+00  0.00000000E+00  0.00000000E+00
  0.00000000E+00  0.00000000E+00  0.00000000E+00
  0.00000000E+00  0.00000000E+00  0.00000000E+00
  0.00000000E+00  0.00000000E+00  0.00000000E+00
  0.00000000E+00  0.00000000E+00  0.00000000E+00
  0.00000000E+00  0.00000000E+00  0.00000000E+00
  0.00000000E+00  0.00000000E+00  0.00000000E+00
  0.00000000E+00  0.00000000E+00  0.00000000E+00
  0.00000000E+00  0.00000000E+00  0.00000000E+00
  0.00000000E+00  0.00000000E+00  0.00000000E+00
  0.00000000E+00  0.00000000E+00  0.00000000E+00
  0.00000000E+00  0.00000000E+00  0.00000000E+00
  0.00000000E+00  0.00000000E+00  0.00000000E+00
  0.00000000E+00  0.00000000E+00  0.00000000E+00
  0.00000000E+00  0.00000000E+00  0.00000000E+00
  0.00000000E+00  0.00000000E+00  0.00000000E+00
  0.00000000E+00  0.00000000E+00  0.00000000E+00
  0.00000000E+00  0.00000000E+00  0.00000000E+00
  0.00000000E+00  0.00000000E+00  0.00000000E+00
  0.00000000E+00  0.00000000E+00  0.00000000E+00
  0.00000000E+00  0.00000000E+00  0.00000000E+00
  0.00000000E+00  0.00000000E+00  0.00000000E+00
  0.00000000E+00  0.00000000E+00  0.00000000E+00
  0.00000000E+00  0.00000000E+00  0.00000000E+00
  0.00000000E+00  0.00000000E+00  0.00000000E+00
  0.00000000E+00  0.00000000E+00  0.00000000E+00
  0.00000000E+00  0.00000000E+00  0.00000000E+00
  0.00000000E+00  0.00000000E+00  0.00000000E+00
  0.00000000E+00  0.00000000E+00  0.00000000E+00
  0.00000000E+00  0.00000000E+00  0.00000000E+00
  0.00000000E+00  0.00000000E+00  0.00000000E+00
  0.00000000E+00  0.00000000E+00  0.00000000E+00
  0.00000000E+00  0.00000000E+00  0.00000000E+00
  0.00000000E+00  0.00000000E+00  0.00000000E+00
  0.00000000E+00  0.00000000E+00  0.00000000E+00
  0.00000000E+00  0.00000000E+00  0.00000000E+00
  0.00000000E+00  0.00000000E+00  0.00000000E+00
  0.00000000E+00  0.00000000E+00  0.00000000E+00
  0.00000000E+00  0.00000000E+00  0.00000000E+00
  0.00000000E+00  0.00000000E+00  0.00000000E+00
  0.00000000E+00  0.00000000E+00  0.00000000E+00
  0.00000000E+00  0.00000000E+00  0.00000000E+00
  0.00000000E+00  0.00000000E+00  0.00000000E+00
  0.00000000E+00  0.00000000E+00  0.00000000E+00
  0.00000000E+00  0.00000000E+00  0.00000000E+00
  0.00000000E+00  0.00000000E+00  0.00000000E+00
  0.00000000E+00  0.00000000E+00  0.00000000E+00
  0.00000000E+00  0.00000000E+00  0.00000000E+00
  0.00000000E+00  0.00000000E+00  0.00000000E+00
