Li24 P4 S20 Cl4                         
   1.00000000000000     
    10.0286120784380195    0.0000000000000000    0.0000000000000000
     0.0000000000000000   10.0286120784380195    0.0000000000000000
     0.0000000000000000    0.0000000000000000   10.0286120784380195
   Li   P    S    Cl
    24     4    20     4
Direct
  0.9770102165640612  0.2499464352075146  0.2499464352075146
  0.9770102165640612  0.7499464352075146  0.7499464352075146
  0.0227699557232171  0.2502031918554878  0.7502031918554949
  0.0227699557232171  0.7502031918554949  0.2502031918554949
  0.2499853772752620  0.2499088285994824  0.9767320983587826
  0.2498662888204189  0.7501363223683489  0.0232437222816885
  0.7499822009339524  0.2499105188059387  0.0233013116561499
  0.7500206780780633  0.7499187110334270  0.9766893057670257
  0.2499853772752620  0.9767320983587826  0.2499088285994682
  0.2498662888204189  0.0232437222816885  0.7501363223683489
  0.7500206780780633  0.9766893057670257  0.7499187110334270
  0.7499822009339524  0.0233013116561499  0.2499105188059387
  0.2499853772752620  0.7499088285994825  0.4767320983587827
  0.2498662888204189  0.2501363223683418  0.5232437222816885
  0.7499822009339524  0.7499105188059386  0.5233013116561570
  0.7500206780780633  0.2499187110334270  0.4766893057670256
  0.2499853772752620  0.4767320983587827  0.7499088285994754
  0.2498662888204189  0.5232437222816885  0.2501363223683489
  0.7500206780780633  0.4766893057670256  0.2499187110334270
  0.7499822009339524  0.5233013116561570  0.7499105188059386
  0.4766682372478462  0.2499791538591873  0.7499791538591872
  0.4766682372478462  0.7499791538591872  0.2499791538591873
  0.5232109637978689  0.2499686926377380  0.2499686926377380
  0.5232109637978689  0.7499686926377379  0.7499686926377379
  0.5001691496382469  0.4999583065814515  0.4999583065814515
  0.5001691496382469  0.9999583065814516  0.9999583065814516
  0.9999730577100302  0.5000763166923854  0.0000763166923854
  0.9999730577100302  0.0000763166923854  0.5000763166923854
  0.1181548306243304  0.8819828772016088  0.6180058309191530
  0.1181548306243304  0.1180058309191529  0.3819828772016017
  0.8816636340484721  0.8821592904902703  0.3821592904902703
  0.8818924248282306  0.1181248203947827  0.6181248203947899
  0.8818924248282306  0.6181248203947899  0.1181248203947827
  0.8816636340484721  0.3821592904902703  0.8821592904902703
  0.1181548306243304  0.6180058309191530  0.8819828772016088
  0.1181548306243304  0.3819828772016017  0.1180058309191529
  0.6182117946822278  0.1180325113384422  0.8818655782889364
  0.6182117946822278  0.8818655782889364  0.1180325113384422
  0.3820560304517739  0.1179877214308655  0.1179877214308726
  0.3820295097567140  0.8819415586417548  0.8819415586417548
  0.6182117946822278  0.6180325113384422  0.3818655782889364
  0.6182117946822278  0.3818655782889364  0.6180325113384422
  0.3820560304517739  0.6179877214308656  0.6179877214308656
  0.3820295097567140  0.3819415586417478  0.3819415586417478
  0.7501101916251334  0.7499911678168664  0.7499911678168664
  0.7501101916251334  0.2499911678168593  0.2499911678168593
  0.2497177354802336  0.7499904615738826  0.2499904615738825
  0.2497177354802336  0.2499904615738825  0.7499904615738826
  0.9999958686344251  0.0000092948267966  0.0000092948267966
  0.9999958686344251  0.5000092948268037  0.5000092948267966
  0.5002906836652663  0.9999359713720396  0.4999359713720396
  0.5002906836652663  0.4999359713720325  0.9999359713720396
 
  0.00000000E+00  0.00000000E+00  0.00000000E+00
  0.00000000E+00  0.00000000E+00  0.00000000E+00
  0.00000000E+00  0.00000000E+00  0.00000000E+00
  0.00000000E+00  0.00000000E+00  0.00000000E+00
  0.00000000E+00  0.00000000E+00  0.00000000E+00
  0.00000000E+00  0.00000000E+00  0.00000000E+00
  0.00000000E+00  0.00000000E+00  0.00000000E+00
  0.00000000E+00  0.00000000E+00  0.00000000E+00
  0.00000000E+00  0.00000000E+00  0.00000000E+00
  0.00000000E+00  0.00000000E+00  0.00000000E+00
  0.00000000E+00  0.00000000E+00  0.00000000E+00
  0.00000000E+00  0.00000000E+00  0.00000000E+00
  0.00000000E+00  0.00000000E+00  0.00000000E+00
  0.00000000E+00  0.00000000E+00  0.00000000E+00
  0.00000000E+00  0.00000000E+00  0.00000000E+00
  0.00000000E+00  0.00000000E+00  0.00000000E+00
  0.00000000E+00  0.00000000E+00  0.00000000E+00
  0.00000000E+00  0.00000000E+00  0.00000000E+00
  0.00000000E+00  0.00000000E+00  0.00000000E+00
  0.00000000E+00  0.00000000E+00  0.00000000E+00
  0.00000000E+00  0.00000000E+00  0.00000000E+00
  0.00000000E+00  0.00000000E+00  0.00000000E+00
  0.00000000E+00  0.00000000E+00  0.00000000E+00
  0.00000000E+00  0.00000000E+00  0.00000000E+00
  0.00000000E+00  0.00000000E+00  0.00000000E+00
  0.00000000E+00  0.00000000E+00  0.00000000E+00
  0.00000000E+00  0.00000000E+00  0.00000000E+00
  0.00000000E+00  0.00000000E+00  0.00000000E+00
  0.00000000E+00  0.00000000E+00  0.00000000E+00
  0.00000000E+00  0.00000000E+00  0.00000000E+00
  0.00000000E+00  0.00000000E+00  0.00000000E+00
  0.00000000E+00  0.00000000E+00  0.00000000E+00
  0.00000000E+00  0.00000000E+00  0.00000000E+00
  0.00000000E+00  0.00000000E+00  0.00000000E+00
  0.00000000E+00  0.00000000E+00  0.00000000E+00
  0.00000000E+00  0.00000000E+00  0.00000000E+00
  0.00000000E+00  0.00000000E+00  0.00000000E+00
  0.00000000E+00  0.00000000E+00  0.00000000E+00
  0.00000000E+00  0.00000000E+00  0.00000000E+00
  0.00000000E+00  0.00000000E+00  0.00000000E+00
  0.00000000E+00  0.00000000E+00  0.00000000E+00
  0.00000000E+00  0.00000000E+00  0.00000000E+00
  0.00000000E+00  0.00000000E+00  0.00000000E+00
  0.00000000E+00  0.00000000E+00  0.00000000E+00
  0.00000000E+00  0.00000000E+00  0.00000000E+00
  0.00000000E+00  0.00000000E+00  0.00000000E+00
  0.00000000E+00  0.00000000E+00  0.00000000E+00
  0.00000000E+00  0.00000000E+00  0.00000000E+00
  0.00000000E+00  0.00000000E+00  0.00000000E+00
  0.00000000E+00  0.00000000E+00  0.00000000E+00
  0.00000000E+00  0.00000000E+00  0.00000000E+00
  0.00000000E+00  0.00000000E+00  0.00000000E+00
