Li24 P4 S20 Cl4
1.0
  10.0286120784380195    0.0000000000000000    0.0000000000000000
   0.0000000000000000   10.0286120784380195    0.0000000000000000
   0.0000000000000000    0.0000000000000000   10.0286120784380195
Li P S Cl
24 4 20 4
direct
  0.9770514004458796  0.2499479643443009  0.2499479643443007
  0.9770514004458796  0.7499479643443010  0.7499479643443008
  0.0226948056446052  0.2502097242782685  0.7502097242782755
  0.0226948056446052  0.7502097242782757  0.2502097242782754
  0.2499856624003755  0.2499107397249354  0.9767156100049724
  0.2498682428781520  0.7501202924160504  0.0232543089807034
  0.7499791073912021  0.2498992675893328  0.0233180049484701
  0.7500218409040080  0.7499290634579109  0.9766708057807724
  0.2499856624003755  0.9767156100049726  0.2499107397249281
  0.2498682428781520  0.0232543089807036  0.7501202924160502
  0.7500218409040080  0.9766708057807726  0.7499290634579108
  0.7499791073912021  0.0233180049484702  0.2498992675893325
  0.2499856624003755  0.7499107397249354  0.4767156100049724
  0.2498682428781520  0.2501202924160433  0.5232543089807034
  0.7499791073912021  0.7498992675893328  0.5233180049484771
  0.7500218409040080  0.2499290634579109  0.4766708057807724
  0.2499856624003755  0.4767156100049726  0.7499107397249352
  0.2498682428781520  0.5232543089807036  0.2501202924160502
  0.7500218409040080  0.4766708057807726  0.2499290634579106
  0.7499791073912021  0.5233180049484774  0.7498992675893326
  0.4766681925247004  0.2499775135430872  0.7499775135430868
  0.4766681925247004  0.7499775135430872  0.2499775135430869
  0.5231786282905573  0.2499662389973688  0.2499662389973684
  0.5231786282905573  0.7499662389973687  0.7499662389973685
  0.5001983846858726  0.4999467617678182  0.4999467617678178
  0.5001983846858726  0.9999467617678182  0.9999467617678179
  0.9999167231810373  0.5000869671998843  0.0000869671998841
  0.9999167231810373  0.0000869671998843  0.5000869671998841
  0.1182022990731101  0.8819801099240721  0.6180084642009066
  0.1182022990731101  0.1180084642009069  0.3819801099240647
  0.8816270142642106  0.8821873598315479  0.3821873598315476
  0.8818453529721828  0.1181265384595148  0.6181265384595217
  0.8818453529721828  0.6181265384595219  0.1181265384595147
  0.8816270142642106  0.3821873598315478  0.8821873598315477
  0.1182022990731101  0.6180084642009068  0.8819801099240718
  0.1182022990731101  0.3819801099240651  0.1180084642009066
  0.6182789396301995  0.1180534436097793  0.8818416498855409
  0.6182789396301995  0.8818416498855411  0.1180534436097792
  0.3820609289386704  0.1179676509388708  0.1179676509388777
  0.3820343018665215  0.8819602019473781  0.8819602019473779
  0.6182789396301995  0.6180534436097794  0.3818416498855410
  0.6182789396301995  0.3818416498855413  0.6180534436097792
  0.3820609289386704  0.6179676509388708  0.6179676509388706
  0.3820343018665215  0.3819602019473710  0.3819602019473706
  0.7501163762435450  0.7499916494753710  0.7499916494753708
  0.7501163762435450  0.2499916494753640  0.2499916494753636
  0.2496715148089017  0.7499878623029752  0.2499878623029750
  0.2496715148089017  0.2499878623029753  0.7499878623029750
  0.9999836331694980  0.0000030696148533  0.0000030696148531
  0.9999836331694980  0.5000030696148605  0.5000030696148532
  0.5002805584097239  0.9999387367753149  0.4999387367753146
  0.5002805584097239  0.4999387367753078  0.9999387367753146
