Li24 P4 S20 Cl4                         
   1.00000000000000     
     9.6706694955317012    0.0000000000000000    0.0000000000000000
     0.0000000000000000    9.6706694955317012    0.0000000000000000
     0.0000000000000000    0.0000000000000000    9.6706694955317012
   Li   P    S    Cl
    24     4    20     4
Direct
  0.9760910868394127  0.1918575933381141  0.1990873233012731
  0.9766796140107150  0.7055926341364201  0.6999674233891169
  0.0132034822754869  0.2083763679209551  0.7840520693283539
  0.0202415717190254  0.6767487237278401  0.2771928465318484
  0.1764920402810543  0.4515691523484012  0.6591465556592849
  0.3281268743473412  0.6787647800654142  0.0088043838931344
  0.7859356141639179  0.2005792245356914  0.0059747661721742
  0.8187244335119321  0.8481291685805129  0.9471309812441154
  0.1683928030403079  0.9526076497651195  0.1676195559086762
  0.2016180112810590  0.0146794215812950  0.8217001266301441
  0.7020252235397072  0.9962757906130897  0.6619791758733580
  0.6950541853849594  0.0415462503083935  0.3151804564841225
  0.2250784377019751  0.7201012310380692  0.4696471352366775
  0.3264416795589111  0.1447017453667498  0.5309458367681411
  0.7870030682375546  0.7001077097735433  0.5003279911463255
  0.8341280272830720  0.3440787246326453  0.4484521742981430
  0.2762752365857309  0.3010247718925559  0.9707246759975784
  0.2917551513754872  0.5074722350984058  0.2253895146497520
  0.6952730417305610  0.4867165522041157  0.1595800922599236
  0.6830845056360058  0.5523357666329642  0.8049223930022142
  0.4728399748016303  0.3119696700211898  0.7759712344267325
  0.4663389976904277  0.8231934152311980  0.2951267898993172
  0.5161402769154156  0.2717790900206137  0.1975061936849401
  0.5169034524048205  0.7989722832337597  0.6633980586852162
  0.5038117966467922  0.4907702058085330  0.4890305707697326
  0.4994594849264059  0.9966638120603598  0.9839700019627879
  0.9966558818436351  0.5066511803498303  0.9847225876565568
  0.0077799870499171  0.0025030576490396  0.4833622373900686
  0.1240249608807840  0.8864395698755070  0.6184591429383628
  0.1405516462672298  0.1128539594780633  0.3613644795540439
  0.8876918413237457  0.8819301373269236  0.3557041042267753
  0.8829745448917692  0.1385281893527738  0.5885941882735890
  0.8711081701235945  0.6432307550442777  0.0877291858159061
  0.8689106494656407  0.3890026194217436  0.8623635057918726
  0.1344673693718949  0.6096640763096327  0.8619584400550240
  0.1042880839494428  0.3863619328600940  0.1237453364600332
  0.6126075334949568  0.1246806070232583  0.8573390389022311
  0.6297048856807341  0.8903222714797814  0.1123880069132837
  0.3627974191638770  0.1064349243477311  0.1044837346200736
  0.3868014736505335  0.8637969444203031  0.8631672894166590
  0.6062531333111251  0.6191926484295242  0.3539704010961236
  0.6429943850164129  0.3894212652069923  0.6116108387186820
  0.3785821267324686  0.6022854540505395  0.6205730308580475
  0.3800492381588691  0.3526545110261718  0.3862424229749347
  0.7483060343573537  0.7688312939431144  0.7276274418210321
  0.7504039796843346  0.2624797568151769  0.2340366323753173
  0.2500175138978525  0.7380496464111104  0.2333288164812684
  0.2468655609548024  0.2382098364431250  0.7426461191416404
  0.9933182616430243  0.0347139377346757  0.9844180089153065
  0.9976127662840654  0.5437089969209133  0.4942341930502901
  0.5148710806573623  0.9811815159648125  0.4873655088866067
  0.4805449302545115  0.4675484121796180  0.0050204304634724
 
  0.00000000E+00  0.00000000E+00  0.00000000E+00
  0.00000000E+00  0.00000000E+00  0.00000000E+00
  0.00000000E+00  0.00000000E+00  0.00000000E+00
  0.00000000E+00  0.00000000E+00  0.00000000E+00
  0.00000000E+00  0.00000000E+00  0.00000000E+00
  0.00000000E+00  0.00000000E+00  0.00000000E+00
  0.00000000E+00  0.00000000E+00  0.00000000E+00
  0.00000000E+00  0.00000000E+00  0.00000000E+00
  0.00000000E+00  0.00000000E+00  0.00000000E+00
  0.00000000E+00  0.00000000E+00  0.00000000E+00
  0.00000000E+00  0.00000000E+00  0.00000000E+00
  0.00000000E+00  0.00000000E+00  0.00000000E+00
  0.00000000E+00  0.00000000E+00  0.00000000E+00
  0.00000000E+00  0.00000000E+00  0.00000000E+00
  0.00000000E+00  0.00000000E+00  0.00000000E+00
  0.00000000E+00  0.00000000E+00  0.00000000E+00
  0.00000000E+00  0.00000000E+00  0.00000000E+00
  0.00000000E+00  0.00000000E+00  0.00000000E+00
  0.00000000E+00  0.00000000E+00  0.00000000E+00
  0.00000000E+00  0.00000000E+00  0.00000000E+00
  0.00000000E+00  0.00000000E+00  0.00000000E+00
  0.00000000E+00  0.00000000E+00  0.00000000E+00
  0.00000000E+00  0.00000000E+00  0.00000000E+00
  0.00000000E+00  0.00000000E+00  0.00000000E+00
  0.00000000E+00  0.00000000E+00  0.00000000E+00
  0.00000000E+00  0.00000000E+00  0.00000000E+00
  0.00000000E+00  0.00000000E+00  0.00000000E+00
  0.00000000E+00  0.00000000E+00  0.00000000E+00
  0.00000000E+00  0.00000000E+00  0.00000000E+00
  0.00000000E+00  0.00000000E+00  0.00000000E+00
  0.00000000E+00  0.00000000E+00  0.00000000E+00
  0.00000000E+00  0.00000000E+00  0.00000000E+00
  0.00000000E+00  0.00000000E+00  0.00000000E+00
  0.00000000E+00  0.00000000E+00  0.00000000E+00
  0.00000000E+00  0.00000000E+00  0.00000000E+00
  0.00000000E+00  0.00000000E+00  0.00000000E+00
  0.00000000E+00  0.00000000E+00  0.00000000E+00
  0.00000000E+00  0.00000000E+00  0.00000000E+00
  0.00000000E+00  0.00000000E+00  0.00000000E+00
  0.00000000E+00  0.00000000E+00  0.00000000E+00
  0.00000000E+00  0.00000000E+00  0.00000000E+00
  0.00000000E+00  0.00000000E+00  0.00000000E+00
  0.00000000E+00  0.00000000E+00  0.00000000E+00
  0.00000000E+00  0.00000000E+00  0.00000000E+00
  0.00000000E+00  0.00000000E+00  0.00000000E+00
  0.00000000E+00  0.00000000E+00  0.00000000E+00
  0.00000000E+00  0.00000000E+00  0.00000000E+00
  0.00000000E+00  0.00000000E+00  0.00000000E+00
  0.00000000E+00  0.00000000E+00  0.00000000E+00
  0.00000000E+00  0.00000000E+00  0.00000000E+00
  0.00000000E+00  0.00000000E+00  0.00000000E+00
  0.00000000E+00  0.00000000E+00  0.00000000E+00
