Li24 P4 S20 Cl4                         
   1.00000000000000     
    10.0303535718294601    0.0000000000000000    0.0000000000000000
     0.0000000000000000   10.0303535718294601    0.0000000000000000
     0.0000000000000000    0.0000000000000000   10.0303535718294601
   Li   P    S    Cl
    24     4    20     4
Direct
  0.9767506238277573  0.2499538892061103  0.2499224592793041
  0.9766638107282258  0.7500314760783787  0.7501041652575996
  0.0232634379390232  0.2500358842944340  0.7500528751998434
  0.0233424375220656  0.7500332687191444  0.2499697126614014
  0.2498837749418668  0.2499314978897884  0.9767204996750899
  0.2500315402961221  0.7500737581265118  0.0232949510149419
  0.7501271813655557  0.2499557850492426  0.0233014481692461
  0.7500693479348469  0.7500341648107843  0.9766997949335667
  0.2500334154249829  0.9770531096014812  0.2500152282366546
  0.2498462749447391  0.0226691486459800  0.7498462749447462
  0.7500152282366546  0.9770531096014812  0.7500334154249829
  0.7499399249772040  0.0225749504687212  0.2499399249772039
  0.2501041652575995  0.7500314760783787  0.4766638107282259
  0.2500528751998434  0.2500358842944340  0.5232634379390232
  0.7499697126614013  0.7500332687191444  0.5233424375220727
  0.7499224592793041  0.2499538892061103  0.4767506238277573
  0.2500149879842823  0.4765933925053664  0.7500149879842823
  0.2500320985078924  0.5232073972117300  0.2499982481611831
  0.7500171275430265  0.4765264445149953  0.2500171275430265
  0.7499982481611831  0.5232073972117300  0.7500320985078924
  0.4767204996750899  0.2499314978897884  0.7498837749418668
  0.4766997949335738  0.7500341648107843  0.2500693479348469
  0.5233014481692462  0.2499557850492426  0.2501271813655557
  0.5232949510149418  0.7500737581265118  0.7500315402961222
  0.5000246075944986  0.5002134876368554  0.5000183716523113
  0.4999580035875223  0.0000815232735800  0.9999580035875224
  0.0000183716523114  0.5002134876368554  0.0000246075944914
  0.9999615375223603  0.9999989722346896  0.4999615375223603
  0.1178593558918080  0.8816935179892899  0.6178593558918080
  0.1179956443935531  0.1181733160245422  0.3820121676081247
  0.8820156344174258  0.8817723063660072  0.3820156344174259
  0.8820121676081246  0.1181733160245422  0.6179956443935531
  0.8819277218801813  0.6182001987088028  0.1181210860699383
  0.8820139166361537  0.3820913048808571  0.8820326507020855
  0.1181040511998473  0.6182224014213470  0.8819468827262750
  0.1180166665853577  0.3820760315504284  0.1180088139675504
  0.6180086413880291  0.1182461510897161  0.8820078442120689
  0.6178488883710048  0.8817661746305167  0.1178488883710048
  0.3820078442120690  0.1182461510897161  0.1180086413880291
  0.3819759954530351  0.8819349950337252  0.8819759954530351
  0.6181210860699383  0.6182001987088028  0.3819277218801813
  0.6180088139675505  0.3820760315504284  0.6180166665853578
  0.3819468827262749  0.6182224014213470  0.6181040511998473
  0.3820326507020926  0.3820913048808571  0.3820139166361536
  0.7499842794291410  0.7501242193437001  0.7500212920489912
  0.7500237702808765  0.2495430285556673  0.2500237702808765
  0.2500212920489912  0.7501242193437001  0.2499842794291411
  0.2499910963789168  0.2496207363309009  0.7499910963789168
  0.9999892327671829  0.9998917914540203  0.9999968296860950
  0.0000243735885701  0.5000282878673729  0.5000243735885701
  0.4999968296860950  0.9998917914540203  0.4999892327671829
  0.5000152774346732  0.5000982553874088  0.0000152774346733
 
  0.00000000E+00  0.00000000E+00  0.00000000E+00
  0.00000000E+00  0.00000000E+00  0.00000000E+00
  0.00000000E+00  0.00000000E+00  0.00000000E+00
  0.00000000E+00  0.00000000E+00  0.00000000E+00
  0.00000000E+00  0.00000000E+00  0.00000000E+00
  0.00000000E+00  0.00000000E+00  0.00000000E+00
  0.00000000E+00  0.00000000E+00  0.00000000E+00
  0.00000000E+00  0.00000000E+00  0.00000000E+00
  0.00000000E+00  0.00000000E+00  0.00000000E+00
  0.00000000E+00  0.00000000E+00  0.00000000E+00
  0.00000000E+00  0.00000000E+00  0.00000000E+00
  0.00000000E+00  0.00000000E+00  0.00000000E+00
  0.00000000E+00  0.00000000E+00  0.00000000E+00
  0.00000000E+00  0.00000000E+00  0.00000000E+00
  0.00000000E+00  0.00000000E+00  0.00000000E+00
  0.00000000E+00  0.00000000E+00  0.00000000E+00
  0.00000000E+00  0.00000000E+00  0.00000000E+00
  0.00000000E+00  0.00000000E+00  0.00000000E+00
  0.00000000E+00  0.00000000E+00  0.00000000E+00
  0.00000000E+00  0.00000000E+00  0.00000000E+00
  0.00000000E+00  0.00000000E+00  0.00000000E+00
  0.00000000E+00  0.00000000E+00  0.00000000E+00
  0.00000000E+00  0.00000000E+00  0.00000000E+00
  0.00000000E+00  0.00000000E+00  0.00000000E+00
  0.00000000E+00  0.00000000E+00  0.00000000E+00
  0.00000000E+00  0.00000000E+00  0.00000000E+00
  0.00000000E+00  0.00000000E+00  0.00000000E+00
  0.00000000E+00  0.00000000E+00  0.00000000E+00
  0.00000000E+00  0.00000000E+00  0.00000000E+00
  0.00000000E+00  0.00000000E+00  0.00000000E+00
  0.00000000E+00  0.00000000E+00  0.00000000E+00
  0.00000000E+00  0.00000000E+00  0.00000000E+00
  0.00000000E+00  0.00000000E+00  0.00000000E+00
  0.00000000E+00  0.00000000E+00  0.00000000E+00
  0.00000000E+00  0.00000000E+00  0.00000000E+00
  0.00000000E+00  0.00000000E+00  0.00000000E+00
  0.00000000E+00  0.00000000E+00  0.00000000E+00
  0.00000000E+00  0.00000000E+00  0.00000000E+00
  0.00000000E+00  0.00000000E+00  0.00000000E+00
  0.00000000E+00  0.00000000E+00  0.00000000E+00
  0.00000000E+00  0.00000000E+00  0.00000000E+00
  0.00000000E+00  0.00000000E+00  0.00000000E+00
  0.00000000E+00  0.00000000E+00  0.00000000E+00
  0.00000000E+00  0.00000000E+00  0.00000000E+00
  0.00000000E+00  0.00000000E+00  0.00000000E+00
  0.00000000E+00  0.00000000E+00  0.00000000E+00
  0.00000000E+00  0.00000000E+00  0.00000000E+00
  0.00000000E+00  0.00000000E+00  0.00000000E+00
  0.00000000E+00  0.00000000E+00  0.00000000E+00
  0.00000000E+00  0.00000000E+00  0.00000000E+00
  0.00000000E+00  0.00000000E+00  0.00000000E+00
  0.00000000E+00  0.00000000E+00  0.00000000E+00
