GGA = PE
PREC = Accu
EDIFF  =  1.e-6
EDIFFG = -1.e-3
ENCUT = 520.
NELM    = 100       ! Maximum number of electronic SC steps
NELMDL  = -10       ! Number of NON-selfconsistency steps (negative value: delay only for the start-configuration)
#  ADDGRID = .TRUE.    ! PAW flag optional for getting in deep
LASPH   = .TRUE.    ! PAW flag
LREAL   = Auto
LMAXMIX = 4         ! PAW flag
ISPIN   = 2
 
LDIAG   = .TRUE.
LPLANE  = .TRUE.
IVDW = 12           ! vdW correction

SIGMA  =    0.03  ! set to room temperature
ISMEAR =    0     ! Gaussian smearing for big cells

NSW    =     1000    number of steps for IOM
IBRION =      2    ionic relax: 0-MD 1-quasi-New 2-CG
ISIF   =      2    ionic relaxation + stress tensor calcn.

LCHARG  = .FALSE.
LWAVE  = .FALSE.

ALGO = F

KPAR = 1
NPAR = 4     ! adjust to number of processors

POTIM = 0.2
