Li24 P4 S20 Cl4                         
   1.00000000000000     
    10.0232654529962275    0.0000000000000000    0.0000000000000000
     0.0000000000000000   10.0232654529962275    0.0000000000000000
     0.0000000000000000    0.0000000000000000   10.0232654529962275
   Li   P    S    Cl
    24     4    20     4
Direct
  0.9768181058551875  0.2499517318696149  0.2499127835100126
  0.9767680839730559  0.7500671762687077  0.7500895589203012
  0.0231816351632972  0.2500499200093600  0.7500187037714454
  0.0232298321413538  0.7500594596369297  0.2499870113823874
  0.2498533539142471  0.2499233149109017  0.9767877503858671
  0.2500516881017916  0.7500703328249898  0.0231932841278351
  0.7501357426392943  0.2499451473280772  0.0232174551367379
  0.7500522866621466  0.7500489042255793  0.9768017090436700
  0.2500467267378284  0.9768462385367940  0.2500158120921796
  0.2498884346968069  0.0231225909687325  0.7498884346968140
  0.7500158120921796  0.9768462385367940  0.7500467267378284
  0.7499466522598723  0.0230648101745956  0.2499466522598723
  0.2500895589203012  0.7500671762687077  0.4767680839730559
  0.2500187037714454  0.2500499200093600  0.5231816351632972
  0.7499870113823874  0.7500594596369297  0.5232298321413609
  0.7499127835100126  0.2499517318696149  0.4768181058551875
  0.2500161936455427  0.4766787028028006  0.7500161936455427
  0.2500374984934126  0.5233593470896665  0.2499791975378329
  0.7500135093800750  0.4766244950120466  0.2500135093800750
  0.7499791975378329  0.5233593470896665  0.7500374984934126
  0.4767877503858671  0.2499233149109017  0.7498533539142471
  0.4768017090436771  0.7500489042255793  0.2500522866621466
  0.5232174551367379  0.2499451473280772  0.2501357426392943
  0.5231932841278351  0.7500703328249898  0.7500516881017916
  0.5000164222977403  0.4999964307252469  0.5000098852129327
  0.4999794453756792  0.0000209291489313  0.9999794453756792
  0.0000098852129327  0.4999964307252469  0.0000164222977332
  0.9999879627046440  0.9999782254694694  0.4999879627046440
  0.1180518853517967  0.8817936866829541  0.6180518853517967
  0.1181176955059868  0.1180942199189587  0.3818986658578112
  0.8818781967164355  0.8818799346142470  0.3818781967164355
  0.8818986658578112  0.1180942199189587  0.6181176955059868
  0.8818835639559310  0.6180551380401766  0.1181575144410303
  0.8818672986854637  0.3819495629554766  0.8818798183897556
  0.1181365517863995  0.6180790989727427  0.8819007118180267
  0.1181497236104789  0.3819399799744261  0.1181459864131682
  0.6181125068004434  0.1181486948630521  0.8819027959527048
  0.6180406275646675  0.8818355783082552  0.1180406275646675
  0.3819027959526977  0.1181486948630521  0.1181125068004434
  0.3818427885331488  0.8819805997495465  0.8818427885331488
  0.6181575144410303  0.6180551380401766  0.3818835639559310
  0.6181459864131682  0.3819399799744261  0.6181497236104789
  0.3819007118180267  0.6180790989727427  0.6181365517863995
  0.3818798183897627  0.3819495629554766  0.3818672986854637
  0.7499852685615380  0.7500984416799525  0.7500171475979087
  0.7500153547815032  0.2498428324232549  0.2500153547815032
  0.2500171475979087  0.7500984416799525  0.2499852685615380
  0.2499843727605153  0.2498921502616156  0.7499843727605153
  0.9999643444953250  0.9999001709360726  0.9999823166184072
  0.0000341726814241  0.4999827322322759  0.5000341726814241
  0.4999823166184072  0.9999001709360726  0.4999643444953250
  0.5000139659569598  0.5001361106177882  0.0000139659569598
 
  0.00000000E+00  0.00000000E+00  0.00000000E+00
  0.00000000E+00  0.00000000E+00  0.00000000E+00
  0.00000000E+00  0.00000000E+00  0.00000000E+00
  0.00000000E+00  0.00000000E+00  0.00000000E+00
  0.00000000E+00  0.00000000E+00  0.00000000E+00
  0.00000000E+00  0.00000000E+00  0.00000000E+00
  0.00000000E+00  0.00000000E+00  0.00000000E+00
  0.00000000E+00  0.00000000E+00  0.00000000E+00
  0.00000000E+00  0.00000000E+00  0.00000000E+00
  0.00000000E+00  0.00000000E+00  0.00000000E+00
  0.00000000E+00  0.00000000E+00  0.00000000E+00
  0.00000000E+00  0.00000000E+00  0.00000000E+00
  0.00000000E+00  0.00000000E+00  0.00000000E+00
  0.00000000E+00  0.00000000E+00  0.00000000E+00
  0.00000000E+00  0.00000000E+00  0.00000000E+00
  0.00000000E+00  0.00000000E+00  0.00000000E+00
  0.00000000E+00  0.00000000E+00  0.00000000E+00
  0.00000000E+00  0.00000000E+00  0.00000000E+00
  0.00000000E+00  0.00000000E+00  0.00000000E+00
  0.00000000E+00  0.00000000E+00  0.00000000E+00
  0.00000000E+00  0.00000000E+00  0.00000000E+00
  0.00000000E+00  0.00000000E+00  0.00000000E+00
  0.00000000E+00  0.00000000E+00  0.00000000E+00
  0.00000000E+00  0.00000000E+00  0.00000000E+00
  0.00000000E+00  0.00000000E+00  0.00000000E+00
  0.00000000E+00  0.00000000E+00  0.00000000E+00
  0.00000000E+00  0.00000000E+00  0.00000000E+00
  0.00000000E+00  0.00000000E+00  0.00000000E+00
  0.00000000E+00  0.00000000E+00  0.00000000E+00
  0.00000000E+00  0.00000000E+00  0.00000000E+00
  0.00000000E+00  0.00000000E+00  0.00000000E+00
  0.00000000E+00  0.00000000E+00  0.00000000E+00
  0.00000000E+00  0.00000000E+00  0.00000000E+00
  0.00000000E+00  0.00000000E+00  0.00000000E+00
  0.00000000E+00  0.00000000E+00  0.00000000E+00
  0.00000000E+00  0.00000000E+00  0.00000000E+00
  0.00000000E+00  0.00000000E+00  0.00000000E+00
  0.00000000E+00  0.00000000E+00  0.00000000E+00
  0.00000000E+00  0.00000000E+00  0.00000000E+00
  0.00000000E+00  0.00000000E+00  0.00000000E+00
  0.00000000E+00  0.00000000E+00  0.00000000E+00
  0.00000000E+00  0.00000000E+00  0.00000000E+00
  0.00000000E+00  0.00000000E+00  0.00000000E+00
  0.00000000E+00  0.00000000E+00  0.00000000E+00
  0.00000000E+00  0.00000000E+00  0.00000000E+00
  0.00000000E+00  0.00000000E+00  0.00000000E+00
  0.00000000E+00  0.00000000E+00  0.00000000E+00
  0.00000000E+00  0.00000000E+00  0.00000000E+00
  0.00000000E+00  0.00000000E+00  0.00000000E+00
  0.00000000E+00  0.00000000E+00  0.00000000E+00
  0.00000000E+00  0.00000000E+00  0.00000000E+00
  0.00000000E+00  0.00000000E+00  0.00000000E+00
