Generated by IonExplorer 2.0
1.0
       10.2794980000        0.0000000000        0.0000000000
        0.0000000000       10.2794980000        0.0000000000
        0.0000000000        0.0000000000       10.2794980000
   Li    P    S   Cl
   31    4   20    4
Direct
    0.5231100000    0.0000000000    0.2500000000
    0.4768900000    0.0000000000    0.7500000000
    0.7500000000    0.5000000000    0.5231100000
    0.7500000000    0.0000000000    0.4768900000
    0.2500000000    0.5000000000    0.4768900000
    0.2500000000    0.0000000000    0.5231100000
    0.7500000000    0.2731100000    0.7500000000
    0.7500000000    0.2268900000    0.2500000000
    0.2500000000    0.2731100000    0.2500000000
    0.2500000000    0.2268900000    0.7500000000
    0.7500000000    0.0000000000    0.0231100000
    0.7500000000    0.5000000000    0.9768900000
    0.2500000000    0.0000000000    0.9768900000
    0.2500000000    0.5000000000    0.0231100000
    0.7500000000    0.7731100000    0.2500000000
    0.7500000000    0.7268900000    0.7500000000
    0.2500000000    0.7731100000    0.7500000000
    0.2500000000    0.7268900000    0.2500000000
    0.0231100000    0.5000000000    0.2500000000
    0.0231100000    0.0000000000    0.7500000000
    0.9768900000    0.5000000000    0.7500000000
    0.9768900000    0.0000000000    0.2500000000
    0.5150104700    0.5000000000    0.7500000000
    0.5054334100    0.4224052700    0.6712754700
    0.5000000000    0.4623510200    0.5000000000
    0.4945665900    0.4224052700    0.3287245300
    0.6943684800    0.4574502700    0.2925962100
    0.7388642500    0.5000000000    0.2500000000
    0.6943684800    0.5425497300    0.2074037900
    0.4945665900    0.5775947300    0.1712754700
    0.4849895300    0.5000000000    0.2500000000
    0.0000000000    0.7500000000    0.0000000000
    0.0000000000    0.2500000000    0.5000000000
    0.5000000000    0.7500000000    0.5000000000
    0.5000000000    0.2500000000    0.0000000000
    0.1155200000    0.8655200000    0.1155200000
    0.1155200000    0.6344800000    0.8844800000
    0.8844800000    0.8655200000    0.8844800000
    0.8844800000    0.6344800000    0.1155200000
    0.1155200000    0.3655200000    0.6155200000
    0.1155200000    0.1344800000    0.3844800000
    0.8844800000    0.3655200000    0.3844800000
    0.8844800000    0.1344800000    0.6155200000
    0.6155200000    0.8655200000    0.6155200000
    0.6155200000    0.6344800000    0.3844800000
    0.3844800000    0.8655200000    0.3844800000
    0.3844800000    0.6344800000    0.6155200000
    0.6155200000    0.3655200000    0.1155200000
    0.6155200000    0.1344800000    0.8844800000
    0.3844800000    0.3655200000    0.8844800000
    0.3844800000    0.1344800000    0.1155200000
    0.7500000000    0.5000000000    0.7500000000
    0.7500000000    0.0000000000    0.2500000000
    0.2500000000    0.5000000000    0.2500000000
    0.2500000000    0.0000000000    0.7500000000
    0.5000000000    0.2500000000    0.5000000000
    0.5000000000    0.7500000000    0.0000000000
    0.0000000000    0.2500000000    0.0000000000
    0.0000000000    0.7500000000    0.5000000000
