Li24 P4 S20 Cl4                         
   1.00000000000000     
     9.6505359104164885    0.0000000000000000    0.0000000000000000
     0.0000000000000000    9.6505359104164885    0.0000000000000000
     0.0000000000000000    0.0000000000000000    9.6505359104164885
   Li   P    S    Cl
    24     4    20     4
Direct
  0.9856092763799486  0.2157005325709810  0.2028110180094771
  0.9559484926131314  0.8280505785695960  0.8519544481818550
  0.0251823285725825  0.1855452799601627  0.8314120009054108
  0.0326794745960698  0.6892935410531225  0.3083994592733304
  0.2974635113954445  0.2794384170502956  0.9885658983632728
  0.2847431037010404  0.7080452713152352  0.0157360634266751
  0.6594226339926400  0.3153270216500879  0.0373311311055597
  0.6719817228936829  0.6616678519636850  0.9599593251326063
  0.1831078837346483  0.9698117342533904  0.1831745891705573
  0.2744910083140387  0.0289248642176604  0.6885469630743484
  0.7022938521145158  0.9806728674342809  0.6893120077589009
  0.7985482453312680  0.0199331432113295  0.1653773999350242
  0.2724094335791093  0.8016279479896772  0.4770114242311313
  0.1680389568294945  0.3347210600798858  0.5350610986194214
  0.7842130533439026  0.7136058761950174  0.5137936543099624
  0.8033448463127210  0.3000958781664850  0.4791502124977343
  0.3093205341474177  0.4810756642411096  0.7996411899996972
  0.3460132217300531  0.5258891300181371  0.2211490288103330
  0.7926465778678203  0.4799909898504122  0.2758533500183067
  0.8551112813425910  0.5341857542986765  0.7120502085238438
  0.4745005856857565  0.2204845674190961  0.6915128000451631
  0.4811717393007882  0.8299281562255756  0.2989820039923155
  0.5385345693998640  0.1673568400387455  0.3352424656763498
  0.5143883793742635  0.7782550453327295  0.7061605181258857
  0.5009021878160811  0.4975210876592787  0.5009961087733790
  0.4973177969597964  0.9964209951947439  0.9948695291069236
  0.0003221126175836  0.5038756236938896  0.0034126554286358
  0.9953598028635778  0.0023920382695728  0.5009493609945735
  0.0985568211624158  0.8685995457170517  0.6303974997149718
  0.1313019259407695  0.1202121002600282  0.3878745665914444
  0.8745265007531875  0.8876477584281994  0.3689431869272218
  0.8824082531907702  0.1301282760902290  0.6287688383149842
  0.8795792934730156  0.6405428221493319  0.1130982033285750
  0.8697884054632037  0.3721457172473689  0.8993920670668193
  0.1090425635023327  0.6184257956888501  0.8608370429273674
  0.1310536076921438  0.3987544265017295  0.1345044678960400
  0.6168117060753290  0.1257205820730051  0.8759327964382299
  0.6216363189256811  0.8625480186771298  0.1027942751457968
  0.3885912483070176  0.1110338892759198  0.1380910246365499
  0.3638473507552927  0.8860171028232020  0.8717426348075933
  0.6077329088419878  0.6201337956096106  0.3632663287435692
  0.6323748849134916  0.3982605938624477  0.6340510201940874
  0.3626359298937846  0.6180518450389905  0.6096001882446285
  0.3835530656765133  0.3545834678127043  0.3961517094291107
  0.7468245718907640  0.7515787733232538  0.7469133787805224
  0.7511759103906822  0.2453170612004542  0.2515537092106790
  0.2571334910837459  0.7509212770680239  0.2481412720985074
  0.2450328443072023  0.2556865920926509  0.7554045223120960
  0.0021444973373186  0.0214497338237293  0.0194345019203921
  0.9603540649996005  0.5057898237111914  0.4811532222327451
  0.4864823701567007  0.9852735325125714  0.5248280975249050
  0.4700710124575427  0.4990976110893763  0.9981223120224090
 
  0.00000000E+00  0.00000000E+00  0.00000000E+00
  0.00000000E+00  0.00000000E+00  0.00000000E+00
  0.00000000E+00  0.00000000E+00  0.00000000E+00
  0.00000000E+00  0.00000000E+00  0.00000000E+00
  0.00000000E+00  0.00000000E+00  0.00000000E+00
  0.00000000E+00  0.00000000E+00  0.00000000E+00
  0.00000000E+00  0.00000000E+00  0.00000000E+00
  0.00000000E+00  0.00000000E+00  0.00000000E+00
  0.00000000E+00  0.00000000E+00  0.00000000E+00
  0.00000000E+00  0.00000000E+00  0.00000000E+00
  0.00000000E+00  0.00000000E+00  0.00000000E+00
  0.00000000E+00  0.00000000E+00  0.00000000E+00
  0.00000000E+00  0.00000000E+00  0.00000000E+00
  0.00000000E+00  0.00000000E+00  0.00000000E+00
  0.00000000E+00  0.00000000E+00  0.00000000E+00
  0.00000000E+00  0.00000000E+00  0.00000000E+00
  0.00000000E+00  0.00000000E+00  0.00000000E+00
  0.00000000E+00  0.00000000E+00  0.00000000E+00
  0.00000000E+00  0.00000000E+00  0.00000000E+00
  0.00000000E+00  0.00000000E+00  0.00000000E+00
  0.00000000E+00  0.00000000E+00  0.00000000E+00
  0.00000000E+00  0.00000000E+00  0.00000000E+00
  0.00000000E+00  0.00000000E+00  0.00000000E+00
  0.00000000E+00  0.00000000E+00  0.00000000E+00
  0.00000000E+00  0.00000000E+00  0.00000000E+00
  0.00000000E+00  0.00000000E+00  0.00000000E+00
  0.00000000E+00  0.00000000E+00  0.00000000E+00
  0.00000000E+00  0.00000000E+00  0.00000000E+00
  0.00000000E+00  0.00000000E+00  0.00000000E+00
  0.00000000E+00  0.00000000E+00  0.00000000E+00
  0.00000000E+00  0.00000000E+00  0.00000000E+00
  0.00000000E+00  0.00000000E+00  0.00000000E+00
  0.00000000E+00  0.00000000E+00  0.00000000E+00
  0.00000000E+00  0.00000000E+00  0.00000000E+00
  0.00000000E+00  0.00000000E+00  0.00000000E+00
  0.00000000E+00  0.00000000E+00  0.00000000E+00
  0.00000000E+00  0.00000000E+00  0.00000000E+00
  0.00000000E+00  0.00000000E+00  0.00000000E+00
  0.00000000E+00  0.00000000E+00  0.00000000E+00
  0.00000000E+00  0.00000000E+00  0.00000000E+00
  0.00000000E+00  0.00000000E+00  0.00000000E+00
  0.00000000E+00  0.00000000E+00  0.00000000E+00
  0.00000000E+00  0.00000000E+00  0.00000000E+00
  0.00000000E+00  0.00000000E+00  0.00000000E+00
  0.00000000E+00  0.00000000E+00  0.00000000E+00
  0.00000000E+00  0.00000000E+00  0.00000000E+00
  0.00000000E+00  0.00000000E+00  0.00000000E+00
  0.00000000E+00  0.00000000E+00  0.00000000E+00
  0.00000000E+00  0.00000000E+00  0.00000000E+00
  0.00000000E+00  0.00000000E+00  0.00000000E+00
  0.00000000E+00  0.00000000E+00  0.00000000E+00
  0.00000000E+00  0.00000000E+00  0.00000000E+00
