Li24 P4 S20 Cl4                         
   1.00000000000000     
     9.6505359104164885    0.0000000000000000    0.0000000000000000
     0.0000000000000000    9.6505359104164885    0.0000000000000000
     0.0000000000000000    0.0000000000000000    9.6505359104164885
   Li   P    S    Cl
    24     4    20     4
Direct
  0.9856090375349709  0.2156996739379053  0.2028092397014092
  0.9559499394988080  0.8280511308104082  0.8519504920583287
  0.0251844436395317  0.1855449021668107  0.8314135617354736
  0.0326792500082007  0.6892908464139964  0.3083989872582151
  0.2974668114208114  0.2794414434587011  0.9885661957230312
  0.2847456470593670  0.7080476401336568  0.0157364079842068
  0.6594263982120125  0.3153295842987376  0.0373299989856690
  0.6719802457556341  0.6616714107638870  0.9599601322533928
  0.1831067116156362  0.9698116062285251  0.1831754779207344
  0.2744931116986677  0.0289256532048370  0.6885456407926753
  0.7022935327175546  0.9806740191344900  0.6893124463172882
  0.7985492077255287  0.0199322785624645  0.1653789288803580
  0.2724100710214685  0.8016239842162420  0.4770120733071010
  0.1680392145217127  0.3347214291255582  0.5350617878999273
  0.7842162400864083  0.7136074905638807  0.5137935890941634
  0.8033469944096154  0.3000919627229237  0.4791485980375398
  0.3093176278960357  0.4810771191777263  0.7996426118486681
  0.3460082808372604  0.5258879597452619  0.2211467980841064
  0.7926461182979594  0.4799899560461185  0.2758560013142031
  0.8550907476860132  0.5341785623277246  0.7120458638207339
  0.4745015279618556  0.2204846834867880  0.6915172182930363
  0.4811714774520084  0.8299278138810635  0.2989829446598264
  0.5385331426163518  0.1673584884085813  0.3352408113863916
  0.5143891366776217  0.7782585792184307  0.7061566757730660
  0.5009029210342035  0.4975213163591050  0.5009950426173404
  0.4973179495218076  0.9964219388076998  0.9948695364845292
  0.0003216320022688  0.5038764901815114  0.0034125946235335
  0.9953617832825898  0.0023911656087279  0.5009491521422333
  0.0985609241140537  0.8685963041298947  0.6304008651310511
  0.1313057162007709  0.1202172126815952  0.3878715341005901
  0.8745255745304377  0.8876443489287951  0.3689393128284024
  0.8824074718936785  0.1301302224904930  0.6287743465251197
  0.8795737848554097  0.6405442490113984  0.1131014862149584
  0.8697867824779735  0.3721418243277483  0.8993870201910923
  0.1090470365050322  0.6184328896287852  0.8608365963285962
  0.1310569874001857  0.3987500045985968  0.1345081368868435
  0.6168171039293995  0.1257250597855233  0.8759312656761367
  0.6216395484656658  0.8625453845944406  0.1027983423191259
  0.3885868786907736  0.1110367080614978  0.1380944603033853
  0.3638459260928641  0.8860145639032808  0.8717383841413593
  0.6077372425373611  0.6201395071064510  0.3632642022492618
  0.6323792765605418  0.3982524477096590  0.6340517892976791
  0.3626341732654907  0.6180543979394528  0.6096052421434237
  0.3835486321490933  0.3545813230542478  0.3961470610318187
  0.7468247244715656  0.7515790272840732  0.7469138937672852
  0.7511751828800328  0.2453155972555336  0.2515525594162682
  0.2571330411851775  0.7509206935126613  0.2481414356319291
  0.2450330989909659  0.2556871199844153  0.7554050011310949
  0.0021444162204602  0.0214493342868849  0.0194354188383201
  0.9603509153129153  0.5057886951256805  0.4811550083704361
  0.4864822017250958  0.9852733864904621  0.5248286661782231
  0.4700703173534748  0.4990984691165750  0.9981219423003367
 
  0.00000000E+00  0.00000000E+00  0.00000000E+00
  0.00000000E+00  0.00000000E+00  0.00000000E+00
  0.00000000E+00  0.00000000E+00  0.00000000E+00
  0.00000000E+00  0.00000000E+00  0.00000000E+00
  0.00000000E+00  0.00000000E+00  0.00000000E+00
  0.00000000E+00  0.00000000E+00  0.00000000E+00
  0.00000000E+00  0.00000000E+00  0.00000000E+00
  0.00000000E+00  0.00000000E+00  0.00000000E+00
  0.00000000E+00  0.00000000E+00  0.00000000E+00
  0.00000000E+00  0.00000000E+00  0.00000000E+00
  0.00000000E+00  0.00000000E+00  0.00000000E+00
  0.00000000E+00  0.00000000E+00  0.00000000E+00
  0.00000000E+00  0.00000000E+00  0.00000000E+00
  0.00000000E+00  0.00000000E+00  0.00000000E+00
  0.00000000E+00  0.00000000E+00  0.00000000E+00
  0.00000000E+00  0.00000000E+00  0.00000000E+00
  0.00000000E+00  0.00000000E+00  0.00000000E+00
  0.00000000E+00  0.00000000E+00  0.00000000E+00
  0.00000000E+00  0.00000000E+00  0.00000000E+00
  0.00000000E+00  0.00000000E+00  0.00000000E+00
  0.00000000E+00  0.00000000E+00  0.00000000E+00
  0.00000000E+00  0.00000000E+00  0.00000000E+00
  0.00000000E+00  0.00000000E+00  0.00000000E+00
  0.00000000E+00  0.00000000E+00  0.00000000E+00
  0.00000000E+00  0.00000000E+00  0.00000000E+00
  0.00000000E+00  0.00000000E+00  0.00000000E+00
  0.00000000E+00  0.00000000E+00  0.00000000E+00
  0.00000000E+00  0.00000000E+00  0.00000000E+00
  0.00000000E+00  0.00000000E+00  0.00000000E+00
  0.00000000E+00  0.00000000E+00  0.00000000E+00
  0.00000000E+00  0.00000000E+00  0.00000000E+00
  0.00000000E+00  0.00000000E+00  0.00000000E+00
  0.00000000E+00  0.00000000E+00  0.00000000E+00
  0.00000000E+00  0.00000000E+00  0.00000000E+00
  0.00000000E+00  0.00000000E+00  0.00000000E+00
  0.00000000E+00  0.00000000E+00  0.00000000E+00
  0.00000000E+00  0.00000000E+00  0.00000000E+00
  0.00000000E+00  0.00000000E+00  0.00000000E+00
  0.00000000E+00  0.00000000E+00  0.00000000E+00
  0.00000000E+00  0.00000000E+00  0.00000000E+00
  0.00000000E+00  0.00000000E+00  0.00000000E+00
  0.00000000E+00  0.00000000E+00  0.00000000E+00
  0.00000000E+00  0.00000000E+00  0.00000000E+00
  0.00000000E+00  0.00000000E+00  0.00000000E+00
  0.00000000E+00  0.00000000E+00  0.00000000E+00
  0.00000000E+00  0.00000000E+00  0.00000000E+00
  0.00000000E+00  0.00000000E+00  0.00000000E+00
  0.00000000E+00  0.00000000E+00  0.00000000E+00
  0.00000000E+00  0.00000000E+00  0.00000000E+00
  0.00000000E+00  0.00000000E+00  0.00000000E+00
  0.00000000E+00  0.00000000E+00  0.00000000E+00
  0.00000000E+00  0.00000000E+00  0.00000000E+00
