Li24 P4 S20 Cl4                         
   1.00000000000000     
    10.0233706846996320    0.0000000000000000    0.0000000000000000
     0.0000000000000000   10.0233706846996320    0.0000000000000000
     0.0000000000000000    0.0000000000000000   10.0233706846996320
   Li   P    S    Cl
    24     4    20     4
Direct
  0.9766851643749749  0.2496037702816430  0.2498459427665474
  0.9767988817562461  0.7494920654262461  0.7494562481072071
  0.0232146128448339  0.2501953250705793  0.7500891437810365
  0.0231896815507343  0.7498305622333417  0.2500562131283410
  0.2498527124254276  0.2498176679947554  0.9770652605756878
  0.2499734882345168  0.7499463220615042  0.0231346295483799
  0.7494384728380890  0.2505704484689707  0.0231641885756939
  0.7498476232854109  0.7498292425931254  0.9765678465433634
  0.2500790042731416  0.9765325236974884  0.2500890826012677
  0.2499848764485856  0.0231467129422881  0.7501134030522765
  0.7519699274543202  0.9770204905517946  0.7516970162155222
  0.7501836578885217  0.0231292287788155  0.2497002583374192
  0.2498142391439051  0.7497658931890845  0.4767261673641153
  0.2498942505316159  0.2499954890055258  0.5234375140911292
  0.7496270804398922  0.7505802553121123  0.5229712100763824
  0.7496843543655598  0.2498596271260018  0.4767410444616392
  0.2501666002691820  0.4767399549050187  0.7502407764998998
  0.2499240163912777  0.5229408024189074  0.2501500250744962
  0.7497796325349096  0.4767133655655544  0.2497893868987634
  0.7500890041341660  0.5234155986516710  0.7497912888234172
  0.4767489289623678  0.2501366840750127  0.7501399263032106
  0.4767100954757943  0.7498128910846114  0.2497955915048763
  0.5231607998907991  0.2498608573076098  0.2502752119593242
  0.5232739808049093  0.7511860605191844  0.7489941007933473
  0.5000171421008061  0.5000511709802890  0.5001141210073411
  0.5000607729146286 -0.0000064170017472  0.0000571594557216
  0.9999293002164257  0.5000675538403500  0.0000470067370977
  0.0001290179817600  0.0000898995568366  0.4999768485568272
  0.1181602359180139  0.8819183994812354  0.6181254626931771
  0.1183320234971105  0.1181105267657875  0.3818357000952773
  0.8820953856090691  0.8820211698852419  0.3818104817926600
  0.8820452545866305  0.1183385891654187  0.6179682172186590
  0.8817731935704057  0.6182317560676747  0.1180928821313526
  0.8817981551634554  0.3820875063782572  0.8818840129735466
  0.1180787257728487  0.6181250912522063  0.8819056206120017
  0.1178879689449363  0.3818721286453987  0.1182071153670921
  0.6180842965849729  0.1181262375973918  0.8818713212901804
  0.6182081666100959  0.8817678716611481  0.1180460390993487
  0.3819550446838922  0.1179733466235280  0.1182909010128197
  0.3819523835812434  0.8818833817752852  0.8819939337179606
  0.6180700574906560  0.6180930198818753  0.3818714169384979
  0.6181627575297215  0.3819664181007814  0.6182351236566632
  0.3819256688720458  0.6181953758206368  0.6182517640080862
  0.3819074269067054  0.3818370978338267  0.3821864491551429
  0.7500351931536627  0.7502059781269298  0.7497894691695558
  0.7499388386577236  0.2499156769519897  0.2499596983384632
  0.2499342622510477  0.7497512276726106  0.2499026860902803
  0.2499808878868696  0.2499377817022761  0.7502403725131563
  0.9996037667381954  0.0001676666703450  0.9995892611856196
  0.0001597084977273  0.5000255416075226  0.4998838216222048
  0.4997509104190638  0.9998409569521852  0.4995371601349498
  0.4999323675411264  0.4992832067438681  0.0002944763429831
 
  0.00000000E+00  0.00000000E+00  0.00000000E+00
  0.00000000E+00  0.00000000E+00  0.00000000E+00
  0.00000000E+00  0.00000000E+00  0.00000000E+00
  0.00000000E+00  0.00000000E+00  0.00000000E+00
  0.00000000E+00  0.00000000E+00  0.00000000E+00
  0.00000000E+00  0.00000000E+00  0.00000000E+00
  0.00000000E+00  0.00000000E+00  0.00000000E+00
  0.00000000E+00  0.00000000E+00  0.00000000E+00
  0.00000000E+00  0.00000000E+00  0.00000000E+00
  0.00000000E+00  0.00000000E+00  0.00000000E+00
  0.00000000E+00  0.00000000E+00  0.00000000E+00
  0.00000000E+00  0.00000000E+00  0.00000000E+00
  0.00000000E+00  0.00000000E+00  0.00000000E+00
  0.00000000E+00  0.00000000E+00  0.00000000E+00
  0.00000000E+00  0.00000000E+00  0.00000000E+00
  0.00000000E+00  0.00000000E+00  0.00000000E+00
  0.00000000E+00  0.00000000E+00  0.00000000E+00
  0.00000000E+00  0.00000000E+00  0.00000000E+00
  0.00000000E+00  0.00000000E+00  0.00000000E+00
  0.00000000E+00  0.00000000E+00  0.00000000E+00
  0.00000000E+00  0.00000000E+00  0.00000000E+00
  0.00000000E+00  0.00000000E+00  0.00000000E+00
  0.00000000E+00  0.00000000E+00  0.00000000E+00
  0.00000000E+00  0.00000000E+00  0.00000000E+00
  0.00000000E+00  0.00000000E+00  0.00000000E+00
  0.00000000E+00  0.00000000E+00  0.00000000E+00
  0.00000000E+00  0.00000000E+00  0.00000000E+00
  0.00000000E+00  0.00000000E+00  0.00000000E+00
  0.00000000E+00  0.00000000E+00  0.00000000E+00
  0.00000000E+00  0.00000000E+00  0.00000000E+00
  0.00000000E+00  0.00000000E+00  0.00000000E+00
  0.00000000E+00  0.00000000E+00  0.00000000E+00
  0.00000000E+00  0.00000000E+00  0.00000000E+00
  0.00000000E+00  0.00000000E+00  0.00000000E+00
  0.00000000E+00  0.00000000E+00  0.00000000E+00
  0.00000000E+00  0.00000000E+00  0.00000000E+00
  0.00000000E+00  0.00000000E+00  0.00000000E+00
  0.00000000E+00  0.00000000E+00  0.00000000E+00
  0.00000000E+00  0.00000000E+00  0.00000000E+00
  0.00000000E+00  0.00000000E+00  0.00000000E+00
  0.00000000E+00  0.00000000E+00  0.00000000E+00
  0.00000000E+00  0.00000000E+00  0.00000000E+00
  0.00000000E+00  0.00000000E+00  0.00000000E+00
  0.00000000E+00  0.00000000E+00  0.00000000E+00
  0.00000000E+00  0.00000000E+00  0.00000000E+00
  0.00000000E+00  0.00000000E+00  0.00000000E+00
  0.00000000E+00  0.00000000E+00  0.00000000E+00
  0.00000000E+00  0.00000000E+00  0.00000000E+00
  0.00000000E+00  0.00000000E+00  0.00000000E+00
  0.00000000E+00  0.00000000E+00  0.00000000E+00
  0.00000000E+00  0.00000000E+00  0.00000000E+00
  0.00000000E+00  0.00000000E+00  0.00000000E+00
