Li24 P4 S20 Cl4                         
   1.00000000000000     
     9.7236445454847562    0.0000000000000000    0.0000000000000000
     0.0000000000000000    9.7236445454847562    0.0000000000000000
     0.0000000000000000    0.0000000000000000    9.7236445454847562
   Li   P    S    Cl
    24     4    20     4
Direct
  0.9790750426070518  0.2159045593152649  0.2150687630279524
  0.9790750426070518  0.7150687630280661  0.7159045593153147
  0.0317306949743272  0.2610041168971346  0.7610041168971347
  0.2796966387794413  0.4118139988478817  0.9118139988479101
  0.2158551020976544  0.0938732451334805  0.9349003241304691
  0.2409906407565897  0.7458338640513690  0.0339703595974386
  0.7878769924348038  0.2008999933760119  0.0263927478239879
  0.7498662621195170  0.7380946111516679  0.9996505554945626
  0.0774846833832077  0.9313371127183365  0.2210244388759556
  0.3465923214674435  0.9970564770172886  0.6849333165248266
  0.8245966570280433  0.9733162806133029  0.8177076035351697
  0.6856612036581989  0.0501157258287078  0.3262187139644535
  0.0774846833832006  0.7210244388759556  0.4313371127182797
  0.3465923214674435  0.1849333165248195  0.4970564770172957
  0.6856612036582060  0.8262187139644392  0.5501157258286723
  0.8245966570280433  0.3177076035350490  0.4733162806133242
  0.2158551020976544  0.4349003241304478  0.5938732451335089
  0.2409906407565897  0.5339703595974458  0.2458338640512908
  0.7498662621195099  0.4996505554945413  0.2380946111517744
  0.7878769924348038  0.5263927478239595  0.7008999933761185
  0.4981861400592159  0.3040029389618917  0.8040029389619414
  0.4509265402209255  0.8240556853883461  0.3240556853884882
  0.5209373717241221  0.3175408318594848  0.1762138617673548
  0.5209373717241221  0.6762138617673691  0.8175408318594564
  0.5028864334956767  0.5128071867138737  0.5023608001319720
  0.5028864334956767  0.0023608001319650  0.0128071867139093
  0.0027933484411566  0.5028338898111174  0.0028338898111316
  0.0029682429399341  0.0127309246606035  0.5127309246605253
  0.1243145973526435  0.8865843399972555  0.6298791018622240
  0.1243145973526151  0.1298791018621884  0.3865843399972839
  0.8804974576023324  0.8899591955127483  0.3899591955128406
  0.8742546204789842  0.1311059076976638  0.6311059076976069
  0.9146599065354769  0.6370159373951124  0.1370159373951053
  0.8651502100131487  0.3895352589200773  0.8895352589200560
  0.1314056421923193  0.6050360887944518  0.8686051758845025
  0.1314056421923264  0.3686051758844812  0.1050360887945087
  0.6244897940712977  0.1088241530587307  0.8758636717430383
  0.6221082146889985  0.8870553940263922  0.1420190545975532
  0.3755141057613982  0.1258714099893968  0.1226297682507040
  0.3791643542060021  0.8766672370323216  0.8918198652250714
  0.6221082146889985  0.6420190545975035  0.3870553940264420
  0.6244897940712977  0.3758636717429814  0.6088241530586739
  0.3755141057613982  0.6226297682507183  0.6258714099893471
  0.3791643542059950  0.3918198652250146  0.3766672370323358
  0.7492672801796775  0.7510707037398068  0.7665123057251872
  0.7492672801796775  0.2665123057251446  0.2510707037397713
  0.2361713334017911  0.7621303839477915  0.2621303839476707
  0.2696892690664385  0.2365506088174597  0.7365506088175094
  0.9874846259970792  0.0356804525417412  0.0113195017407720
  0.9874846259970792  0.5113195017408217  0.5356804525417128
  0.5074021330639974  0.9972077130606546  0.4972077130606546
  0.4977747876793439  0.4841967959191215  0.9841967959191641
 
  0.00000000E+00  0.00000000E+00  0.00000000E+00
  0.00000000E+00  0.00000000E+00  0.00000000E+00
  0.00000000E+00  0.00000000E+00  0.00000000E+00
  0.00000000E+00  0.00000000E+00  0.00000000E+00
  0.00000000E+00  0.00000000E+00  0.00000000E+00
  0.00000000E+00  0.00000000E+00  0.00000000E+00
  0.00000000E+00  0.00000000E+00  0.00000000E+00
  0.00000000E+00  0.00000000E+00  0.00000000E+00
  0.00000000E+00  0.00000000E+00  0.00000000E+00
  0.00000000E+00  0.00000000E+00  0.00000000E+00
  0.00000000E+00  0.00000000E+00  0.00000000E+00
  0.00000000E+00  0.00000000E+00  0.00000000E+00
  0.00000000E+00  0.00000000E+00  0.00000000E+00
  0.00000000E+00  0.00000000E+00  0.00000000E+00
  0.00000000E+00  0.00000000E+00  0.00000000E+00
  0.00000000E+00  0.00000000E+00  0.00000000E+00
  0.00000000E+00  0.00000000E+00  0.00000000E+00
  0.00000000E+00  0.00000000E+00  0.00000000E+00
  0.00000000E+00  0.00000000E+00  0.00000000E+00
  0.00000000E+00  0.00000000E+00  0.00000000E+00
  0.00000000E+00  0.00000000E+00  0.00000000E+00
  0.00000000E+00  0.00000000E+00  0.00000000E+00
  0.00000000E+00  0.00000000E+00  0.00000000E+00
  0.00000000E+00  0.00000000E+00  0.00000000E+00
  0.00000000E+00  0.00000000E+00  0.00000000E+00
  0.00000000E+00  0.00000000E+00  0.00000000E+00
  0.00000000E+00  0.00000000E+00  0.00000000E+00
  0.00000000E+00  0.00000000E+00  0.00000000E+00
  0.00000000E+00  0.00000000E+00  0.00000000E+00
  0.00000000E+00  0.00000000E+00  0.00000000E+00
  0.00000000E+00  0.00000000E+00  0.00000000E+00
  0.00000000E+00  0.00000000E+00  0.00000000E+00
  0.00000000E+00  0.00000000E+00  0.00000000E+00
  0.00000000E+00  0.00000000E+00  0.00000000E+00
  0.00000000E+00  0.00000000E+00  0.00000000E+00
  0.00000000E+00  0.00000000E+00  0.00000000E+00
  0.00000000E+00  0.00000000E+00  0.00000000E+00
  0.00000000E+00  0.00000000E+00  0.00000000E+00
  0.00000000E+00  0.00000000E+00  0.00000000E+00
  0.00000000E+00  0.00000000E+00  0.00000000E+00
  0.00000000E+00  0.00000000E+00  0.00000000E+00
  0.00000000E+00  0.00000000E+00  0.00000000E+00
  0.00000000E+00  0.00000000E+00  0.00000000E+00
  0.00000000E+00  0.00000000E+00  0.00000000E+00
  0.00000000E+00  0.00000000E+00  0.00000000E+00
  0.00000000E+00  0.00000000E+00  0.00000000E+00
  0.00000000E+00  0.00000000E+00  0.00000000E+00
  0.00000000E+00  0.00000000E+00  0.00000000E+00
  0.00000000E+00  0.00000000E+00  0.00000000E+00
  0.00000000E+00  0.00000000E+00  0.00000000E+00
  0.00000000E+00  0.00000000E+00  0.00000000E+00
  0.00000000E+00  0.00000000E+00  0.00000000E+00
