Li24 P4 S20 Cl4                         
   1.00000000000000     
     9.7236445454847562    0.0000000000000000    0.0000000000000000
     0.0000000000000000    9.7236445454847562    0.0000000000000000
     0.0000000000000000    0.0000000000000000    9.7236445454847562
   Li   P    S    Cl
    24     4    20     4
Direct
  0.9790756172823194  0.2159062480727414  0.2150698251993148
  0.9790756172823194  0.7150698251994285  0.7159062480727911
  0.0317316097528888  0.2610044950338164  0.7610044950338164
  0.2796948315274292  0.4118134838017298  0.9118134838017582
  0.2158551765296792  0.0938716832243429  0.9348985011909221
  0.2409935852239542  0.7458340673357569  0.0339703881687115
  0.7878778043128847  0.2009017318068516  0.0263930747463093
  0.7498657979711538  0.7380964470527900  0.9996502572236210
  0.0774844108306638  0.9313373433483960  0.2210245339956103
  0.3465915877686712  0.9970559676592146  0.6849323719002243
  0.8245953199286902  0.9733172407326549  0.8177069473467711
  0.6856616115247931  0.0501154015216159  0.3262176842230105
  0.0774844108306567  0.7210245339956103  0.4313373433483392
  0.3465915877686712  0.1849323719002172  0.4970559676592217
  0.6856616115248002  0.8262176842229962  0.5501154015215803
  0.8245953199286902  0.3177069473466503  0.4733172407326762
  0.2158551765296792  0.4348985011909008  0.5938716832243713
  0.2409935852239542  0.5339703881687186  0.2458340673356787
  0.7498657979711467  0.4996502572235997  0.2380964470528966
  0.7878778043128847  0.5263930747462808  0.7009017318069581
  0.4981850923381472  0.3040018468936196  0.8040018468936694
  0.4509250300452834  0.8240551145972077  0.3240551145973498
  0.5209379261508644  0.3175394007136916  0.1762128765440707
  0.5209379261508644  0.6762128765440849  0.8175394007136632
  0.5028864805493569  0.5128066837588179  0.5023609645402587
  0.5028864805493569  0.0023609645402516  0.0128066837588534
  0.0027932453660426  0.5028344672035345  0.0028344672035487
  0.0029683676773260  0.0127311380142743  0.5127311380141961
  0.1243148158452314  0.8865839400781326  0.6298789589523253
  0.1243148158452030  0.1298789589522897  0.3865839400781610
  0.8804969902739685  0.8899596007407240  0.3899596007408164
  0.8742558313708315  0.1311068662027779  0.6311068662027211
  0.9146568574798764  0.6370159492800838  0.1370159492800767
  0.8651516756231388  0.3895349518659899  0.8895349518659685
  0.1314055741034537  0.6050379552295126  0.8686069057809362
  0.1314055741034608  0.3686069057809149  0.1050379552295695
  0.6244909056265442  0.1088254524932708  0.8758644767900776
  0.6221073670482653  0.8870552049500873  0.1420192873800659
  0.3755132063372741  0.1258719233053114  0.1226276639188768
  0.3791657571343805  0.8766668582269759  0.8918183176739518
  0.6221073670482653  0.6420192873800161  0.3870552049501370
  0.6244909056265442  0.3758644767900208  0.6088254524932140
  0.3755132063372741  0.6226276639188910  0.6258719233052616
  0.3791657571343734  0.3918183176738950  0.3766668582269901
  0.7492675974686520  0.7510711054264121  0.7665122696323010
  0.7492675974686520  0.2665122696322584  0.2510711054263766
  0.2361699706513534  0.7621298806109351  0.2621298806108143
  0.2696890461212860  0.2365500645612499  0.7365500645612997
  0.9874852128860638  0.0356833444626972  0.0113204601099639
  0.9874852128860638  0.5113204601100136  0.5356833444626687
  0.5074012697622905  0.9972064279804869  0.4972064279804869
  0.4977726466643091  0.4841949011966591  0.9841949011967017
 
  0.00000000E+00  0.00000000E+00  0.00000000E+00
  0.00000000E+00  0.00000000E+00  0.00000000E+00
  0.00000000E+00  0.00000000E+00  0.00000000E+00
  0.00000000E+00  0.00000000E+00  0.00000000E+00
  0.00000000E+00  0.00000000E+00  0.00000000E+00
  0.00000000E+00  0.00000000E+00  0.00000000E+00
  0.00000000E+00  0.00000000E+00  0.00000000E+00
  0.00000000E+00  0.00000000E+00  0.00000000E+00
  0.00000000E+00  0.00000000E+00  0.00000000E+00
  0.00000000E+00  0.00000000E+00  0.00000000E+00
  0.00000000E+00  0.00000000E+00  0.00000000E+00
  0.00000000E+00  0.00000000E+00  0.00000000E+00
  0.00000000E+00  0.00000000E+00  0.00000000E+00
  0.00000000E+00  0.00000000E+00  0.00000000E+00
  0.00000000E+00  0.00000000E+00  0.00000000E+00
  0.00000000E+00  0.00000000E+00  0.00000000E+00
  0.00000000E+00  0.00000000E+00  0.00000000E+00
  0.00000000E+00  0.00000000E+00  0.00000000E+00
  0.00000000E+00  0.00000000E+00  0.00000000E+00
  0.00000000E+00  0.00000000E+00  0.00000000E+00
  0.00000000E+00  0.00000000E+00  0.00000000E+00
  0.00000000E+00  0.00000000E+00  0.00000000E+00
  0.00000000E+00  0.00000000E+00  0.00000000E+00
  0.00000000E+00  0.00000000E+00  0.00000000E+00
  0.00000000E+00  0.00000000E+00  0.00000000E+00
  0.00000000E+00  0.00000000E+00  0.00000000E+00
  0.00000000E+00  0.00000000E+00  0.00000000E+00
  0.00000000E+00  0.00000000E+00  0.00000000E+00
  0.00000000E+00  0.00000000E+00  0.00000000E+00
  0.00000000E+00  0.00000000E+00  0.00000000E+00
  0.00000000E+00  0.00000000E+00  0.00000000E+00
  0.00000000E+00  0.00000000E+00  0.00000000E+00
  0.00000000E+00  0.00000000E+00  0.00000000E+00
  0.00000000E+00  0.00000000E+00  0.00000000E+00
  0.00000000E+00  0.00000000E+00  0.00000000E+00
  0.00000000E+00  0.00000000E+00  0.00000000E+00
  0.00000000E+00  0.00000000E+00  0.00000000E+00
  0.00000000E+00  0.00000000E+00  0.00000000E+00
  0.00000000E+00  0.00000000E+00  0.00000000E+00
  0.00000000E+00  0.00000000E+00  0.00000000E+00
  0.00000000E+00  0.00000000E+00  0.00000000E+00
  0.00000000E+00  0.00000000E+00  0.00000000E+00
  0.00000000E+00  0.00000000E+00  0.00000000E+00
  0.00000000E+00  0.00000000E+00  0.00000000E+00
  0.00000000E+00  0.00000000E+00  0.00000000E+00
  0.00000000E+00  0.00000000E+00  0.00000000E+00
  0.00000000E+00  0.00000000E+00  0.00000000E+00
  0.00000000E+00  0.00000000E+00  0.00000000E+00
  0.00000000E+00  0.00000000E+00  0.00000000E+00
  0.00000000E+00  0.00000000E+00  0.00000000E+00
  0.00000000E+00  0.00000000E+00  0.00000000E+00
  0.00000000E+00  0.00000000E+00  0.00000000E+00
