Li24 P4 S20 Cl4                         
   1.00000000000000     
     9.6427073437525692    0.0000000000000000    0.0000000000000000
     0.0000000000000000    9.6427073437525692    0.0000000000000000
     0.0000000000000000    0.0000000000000000    9.6427073437525692
   Li   P    S    Cl
    24     4    20     4
Direct
  0.9889580445937304  0.2953228033773557  0.2901207876157836
  0.9352185044561651  0.5514050296226078  0.7026729419848899
  0.0661079016358803  0.1991596419414252  0.8744436683829074
  0.0160506389646449  0.7305047378676475  0.2746915747693257
  0.9703147745388749  0.8346727002648480  0.8224387892695465
  0.2119969804919815  0.7979642361781305  0.0122354886634121
  0.6785002553725428  0.3231977939541745  0.0329103821311614
  0.6588675406426336  0.7188586121602086  0.9807557915492860
  0.1942857994279038  0.9957091193823421  0.1992920411930504
  0.2956807289015215  0.0181653466683456  0.6947130880808652
  0.7249829461655108  0.9755221407505924  0.7107505809228796
  0.8240675090250036  0.0416042993179152  0.1515966958109962
  0.2088095049322695  0.6760650716645916  0.4711829810581218
  0.1982221980082375  0.3221003464315254  0.5414035837397473
  0.8006180300568995  0.7168975861990048  0.5134482578981825
  0.7330930564082528  0.1647146472325468  0.4702028612557801
  0.3103466782630495  0.4542278071078499  0.8492300382497509
  0.3336353715989018  0.5435478378432099  0.1781693863697138
  0.7751006488459262  0.4871435662696830  0.2989011831623814
  0.6605634442062305  0.5149679072779956  0.7950991331247631
  0.4940205805791763  0.2180157117272689  0.7082461223371144
  0.4611117133803381  0.8485015421585201  0.3275367967267453
  0.5201124081212566  0.2053564770764595  0.2822628472262342
  0.5297996722769523  0.7905039734167564  0.6706398505875625
  0.5017195509741932  0.4999896547844807  0.4973366414696234
  0.5026988454281884  0.0110736505428716  0.0012586475727202
  0.9941946721813100  0.5069114878827301  0.0013838513934943
  0.0108902293044012  0.0055895282558828  0.5075846326141261
  0.1215838181238418  0.8610398169686673  0.6177809808684073
  0.1408628759108869  0.1297983863124354  0.3934406088170557
  0.8725155899732611  0.9083591030546361  0.3766810246433190
  0.9054291908062354  0.1274710976473917  0.6454964628943081
  0.8645344070195030  0.6320013847299232  0.1141716209765109
  0.8738233712879472  0.3806262220060885  0.8770823654962362
  0.1133627897183036  0.6251266925921443  0.8663776549723634
  0.1301806059759300  0.3880915634242133  0.1093420509511955
  0.6425897402496170  0.1243345579644214  0.8860265929293550
  0.6188440242680403  0.8989520593149694  0.1416281441067293
  0.3708386185005437  0.1400880764098526  0.1010036172356495
  0.4014831355035727  0.8720549835438579  0.8734803219345872
  0.6051472560458282  0.6450117316191010  0.3795671106707967
  0.6463629019571376  0.3774929243443354  0.5951532130126016
  0.3796147341297764  0.6015813045889540  0.6391762352967830
  0.3743988855266669  0.3860440422768431  0.3717279757077079
  0.7569039232148371  0.7365239934542649  0.7488252528325289
  0.7558192442235496  0.2552339311911732  0.2491952932213095
  0.2496536572173394  0.7625140861921457  0.2473395814608898
  0.2651273836981710  0.2447533058086096  0.7511672799845399
  0.0247846959408882  0.9882328547594158  0.0085627891557945
  0.9915626990839279  0.5282258237553129  0.4638608190987388
  0.5255040132262245  0.0082608471962066  0.5324546238672485
  0.5136112496152564  0.5083827034888543  0.9928152147052787
 
  0.00000000E+00  0.00000000E+00  0.00000000E+00
  0.00000000E+00  0.00000000E+00  0.00000000E+00
  0.00000000E+00  0.00000000E+00  0.00000000E+00
  0.00000000E+00  0.00000000E+00  0.00000000E+00
  0.00000000E+00  0.00000000E+00  0.00000000E+00
  0.00000000E+00  0.00000000E+00  0.00000000E+00
  0.00000000E+00  0.00000000E+00  0.00000000E+00
  0.00000000E+00  0.00000000E+00  0.00000000E+00
  0.00000000E+00  0.00000000E+00  0.00000000E+00
  0.00000000E+00  0.00000000E+00  0.00000000E+00
  0.00000000E+00  0.00000000E+00  0.00000000E+00
  0.00000000E+00  0.00000000E+00  0.00000000E+00
  0.00000000E+00  0.00000000E+00  0.00000000E+00
  0.00000000E+00  0.00000000E+00  0.00000000E+00
  0.00000000E+00  0.00000000E+00  0.00000000E+00
  0.00000000E+00  0.00000000E+00  0.00000000E+00
  0.00000000E+00  0.00000000E+00  0.00000000E+00
  0.00000000E+00  0.00000000E+00  0.00000000E+00
  0.00000000E+00  0.00000000E+00  0.00000000E+00
  0.00000000E+00  0.00000000E+00  0.00000000E+00
  0.00000000E+00  0.00000000E+00  0.00000000E+00
  0.00000000E+00  0.00000000E+00  0.00000000E+00
  0.00000000E+00  0.00000000E+00  0.00000000E+00
  0.00000000E+00  0.00000000E+00  0.00000000E+00
  0.00000000E+00  0.00000000E+00  0.00000000E+00
  0.00000000E+00  0.00000000E+00  0.00000000E+00
  0.00000000E+00  0.00000000E+00  0.00000000E+00
  0.00000000E+00  0.00000000E+00  0.00000000E+00
  0.00000000E+00  0.00000000E+00  0.00000000E+00
  0.00000000E+00  0.00000000E+00  0.00000000E+00
  0.00000000E+00  0.00000000E+00  0.00000000E+00
  0.00000000E+00  0.00000000E+00  0.00000000E+00
  0.00000000E+00  0.00000000E+00  0.00000000E+00
  0.00000000E+00  0.00000000E+00  0.00000000E+00
  0.00000000E+00  0.00000000E+00  0.00000000E+00
  0.00000000E+00  0.00000000E+00  0.00000000E+00
  0.00000000E+00  0.00000000E+00  0.00000000E+00
  0.00000000E+00  0.00000000E+00  0.00000000E+00
  0.00000000E+00  0.00000000E+00  0.00000000E+00
  0.00000000E+00  0.00000000E+00  0.00000000E+00
  0.00000000E+00  0.00000000E+00  0.00000000E+00
  0.00000000E+00  0.00000000E+00  0.00000000E+00
  0.00000000E+00  0.00000000E+00  0.00000000E+00
  0.00000000E+00  0.00000000E+00  0.00000000E+00
  0.00000000E+00  0.00000000E+00  0.00000000E+00
  0.00000000E+00  0.00000000E+00  0.00000000E+00
  0.00000000E+00  0.00000000E+00  0.00000000E+00
  0.00000000E+00  0.00000000E+00  0.00000000E+00
  0.00000000E+00  0.00000000E+00  0.00000000E+00
  0.00000000E+00  0.00000000E+00  0.00000000E+00
  0.00000000E+00  0.00000000E+00  0.00000000E+00
  0.00000000E+00  0.00000000E+00  0.00000000E+00
