Li24 P4 S20 Cl4                         
   1.00000000000000     
     9.6427073437525692    0.0000000000000000    0.0000000000000000
     0.0000000000000000    9.6427073437525692    0.0000000000000000
     0.0000000000000000    0.0000000000000000    9.6427073437525692
   Li   P    S    Cl
    24     4    20     4
Direct
  0.9889618908123268  0.2953072844713418  0.2901028560733110
  0.9352241970100437  0.5514136696610592  0.7026745484445271
  0.0660984352170715  0.1991515247784790  0.8744233654168241
  0.0160511850629916  0.7304990614502671  0.2746958222381437
  0.9703150643672629  0.8346735976350246  0.8224448777079019
  0.2119958945289895  0.7979660070932866  0.0122397263047560
  0.6785096823870234  0.3232019871165690  0.0329073001462490
  0.6588718507703533  0.7188541515166023  0.9807596289919047
  0.1942852179977379  0.9957065164774264  0.1992953396432497
  0.2956812618964619  0.0181664648639668  0.6947137172256390
  0.7249805973695231  0.9755232370739861  0.7107506360748843
  0.8240631782948142  0.0415997969637942  0.1515984199509504
  0.2088097707178278  0.6760698753175021  0.4711867482102932
  0.1982236094020777  0.3220969780132776  0.5414031547552511
  0.8006130403272422  0.7169007930925417  0.5134511119240628
  0.7330872065707581  0.1647121612604039  0.4702000229957548
  0.3103468031789092  0.4542284832566494  0.8492267163214393
  0.3336376211462877  0.5435511651060096  0.1781687854782206
  0.7751121365549380  0.4871387522924451  0.2989117104160357
  0.6605667614980604  0.5149661514389834  0.7950967729811325
  0.4940203623581709  0.2180162171993061  0.7082489550270523
  0.4611144783178247  0.8484999243709836  0.3275382572432761
  0.5201124692903534  0.2053710804360165  0.2822493335833443
  0.5297974277570248  0.7905024488530970  0.6706495904164029
  0.5017175469151525  0.4999901231935127  0.4973298137445070
  0.5026996235680627  0.0110663876454922  0.0012628238751446
  0.9942052415239786  0.5069098159553036  0.0013840291694720
  0.0108926330753292  0.0055882204596855  0.5075785598051894
  0.1215766988637057  0.8610493021991061  0.6177845767332215
  0.1408586356470920  0.1297941658030908  0.3934499590805700
  0.8725205155720062  0.9083605898623972  0.3766907154557870
  0.9054262293022646  0.1274678299787979  0.6454892405038564
  0.8645422259647404  0.6319922776937403  0.1141716737436980
  0.8738258571672688  0.3806354247808272  0.8770827365742235
  0.1133566870705067  0.6251315782300679  0.8663850536751383
  0.1301707428757055  0.3881021710063806  0.1093402412466844
  0.6425804799649697  0.1243327666077789  0.8860298160510922
  0.6188382097124290  0.8989527476644597  0.1416240383507414
  0.3708436502969121  0.1400802393983511  0.1009967553696569
  0.4014826409778820  0.8720642205479621  0.8734847524191522
  0.6051477492327990  0.6450033442285630  0.3795688371688897
  0.6463537905786509  0.3774950526877277  0.5951518458394318
  0.3796222834808916  0.6015795230239362  0.6391674858445526
  0.3744019769713560  0.3860500561070666  0.3717352458766570
  0.7569024346286852  0.7365254479930172  0.7488239518575028
  0.7558193805772575  0.2552326750146037  0.2491941161654196
  0.2496525837360721  0.7625151426763566  0.2473417921389469
  0.2651237072547232  0.2447555305643618  0.7511632352976321
  0.0247847443132585  0.9882346782910929  0.0085645948548034
  0.9915610913404507  0.5282324074452944  0.4638613127762383
  0.5255042848727314  0.0082569187018677  0.5324631671108477
  0.5136152516803065  0.5083787825009267  0.9928077117004364
 
  0.00000000E+00  0.00000000E+00  0.00000000E+00
  0.00000000E+00  0.00000000E+00  0.00000000E+00
  0.00000000E+00  0.00000000E+00  0.00000000E+00
  0.00000000E+00  0.00000000E+00  0.00000000E+00
  0.00000000E+00  0.00000000E+00  0.00000000E+00
  0.00000000E+00  0.00000000E+00  0.00000000E+00
  0.00000000E+00  0.00000000E+00  0.00000000E+00
  0.00000000E+00  0.00000000E+00  0.00000000E+00
  0.00000000E+00  0.00000000E+00  0.00000000E+00
  0.00000000E+00  0.00000000E+00  0.00000000E+00
  0.00000000E+00  0.00000000E+00  0.00000000E+00
  0.00000000E+00  0.00000000E+00  0.00000000E+00
  0.00000000E+00  0.00000000E+00  0.00000000E+00
  0.00000000E+00  0.00000000E+00  0.00000000E+00
  0.00000000E+00  0.00000000E+00  0.00000000E+00
  0.00000000E+00  0.00000000E+00  0.00000000E+00
  0.00000000E+00  0.00000000E+00  0.00000000E+00
  0.00000000E+00  0.00000000E+00  0.00000000E+00
  0.00000000E+00  0.00000000E+00  0.00000000E+00
  0.00000000E+00  0.00000000E+00  0.00000000E+00
  0.00000000E+00  0.00000000E+00  0.00000000E+00
  0.00000000E+00  0.00000000E+00  0.00000000E+00
  0.00000000E+00  0.00000000E+00  0.00000000E+00
  0.00000000E+00  0.00000000E+00  0.00000000E+00
  0.00000000E+00  0.00000000E+00  0.00000000E+00
  0.00000000E+00  0.00000000E+00  0.00000000E+00
  0.00000000E+00  0.00000000E+00  0.00000000E+00
  0.00000000E+00  0.00000000E+00  0.00000000E+00
  0.00000000E+00  0.00000000E+00  0.00000000E+00
  0.00000000E+00  0.00000000E+00  0.00000000E+00
  0.00000000E+00  0.00000000E+00  0.00000000E+00
  0.00000000E+00  0.00000000E+00  0.00000000E+00
  0.00000000E+00  0.00000000E+00  0.00000000E+00
  0.00000000E+00  0.00000000E+00  0.00000000E+00
  0.00000000E+00  0.00000000E+00  0.00000000E+00
  0.00000000E+00  0.00000000E+00  0.00000000E+00
  0.00000000E+00  0.00000000E+00  0.00000000E+00
  0.00000000E+00  0.00000000E+00  0.00000000E+00
  0.00000000E+00  0.00000000E+00  0.00000000E+00
  0.00000000E+00  0.00000000E+00  0.00000000E+00
  0.00000000E+00  0.00000000E+00  0.00000000E+00
  0.00000000E+00  0.00000000E+00  0.00000000E+00
  0.00000000E+00  0.00000000E+00  0.00000000E+00
  0.00000000E+00  0.00000000E+00  0.00000000E+00
  0.00000000E+00  0.00000000E+00  0.00000000E+00
  0.00000000E+00  0.00000000E+00  0.00000000E+00
  0.00000000E+00  0.00000000E+00  0.00000000E+00
  0.00000000E+00  0.00000000E+00  0.00000000E+00
  0.00000000E+00  0.00000000E+00  0.00000000E+00
  0.00000000E+00  0.00000000E+00  0.00000000E+00
  0.00000000E+00  0.00000000E+00  0.00000000E+00
  0.00000000E+00  0.00000000E+00  0.00000000E+00
