Li24 P4 S20 Cl4                         
   1.00000000000000     
     9.6468745816302999    0.0000000000000000    0.0000000000000000
     0.0000000000000000    9.6468745816302999    0.0000000000000000
     0.0000000000000000    0.0000000000000000    9.6468745816302999
   Li   P    S    Cl
    24     4    20     4
Direct
  0.9730288291798054  0.1559588642413000  0.2230350161571014
  0.9751584999894175  0.6681098619235789  0.7044865695831571
  0.0180695792270601  0.1846590636967017  0.7940089762021398
  0.0214941447548279  0.7001106403091591  0.2721226701433955
  0.2116028125531393  0.1983426368857588  0.9883287765972882
  0.1865932851577617  0.8472144699875386  0.0377918495868092
  0.7920020618204514  0.2127876747909694  0.0195132713161674
  0.8385372814410506  0.8247588369735439  0.9604772320346888
  0.3375363026572872  0.9602020652317853  0.3282015679184400
  0.3085883686002202  0.0451848001225979  0.6721001160501865
  0.7237064927497547  0.9836038085762652  0.6916048924751310
  0.6788083460353561  0.0072078850015959  0.2963516930556547
  0.2020155506224980  0.7067173709934746  0.4784017689139048
  0.1674109244690273  0.3322439345931807  0.5348774545413856
  0.7846271013217557  0.7110314161417955  0.5104127388310551
  0.6631127315220022  0.2115860299530185  0.4784521773953319
  0.2886060065570460  0.4900618017751407  0.8286300117972992
  0.2768582539445187  0.5103733055923224  0.2149024220506084
  0.8123642306394903  0.4568308753239844  0.3175341248033102
  0.6799054397125296  0.5465124565583893  0.8466543525572578
  0.4756685121191345  0.2944554065270767  0.7928043144231062
  0.4793762732562364  0.6900416159467166  0.1610352748669690
  0.5305611761736188  0.3156103936752842  0.1826806260891724
  0.5209763675515510  0.7949602009042247  0.6881504211192433
  0.4967836298854341  0.5001647331515070  0.5021287146765208
  0.5041066659700024  0.9970511830233018  0.9919073581662717
  0.9884224774945345  0.4987429547986029  0.0047804414072066
  0.0062085710000864  0.0022953805083749  0.4989603535641510
  0.1129341739501010  0.8807781719627197  0.6362225562583318
  0.1494552489854774  0.1176472330726145  0.3919908980691065
  0.8879099685276011  0.8868471576467347  0.3637179280732893
  0.8807159730455256  0.1423941033525910  0.5990363456133225
  0.8498609939087488  0.6134425261660011  0.1175022281847667
  0.8797539856949355  0.3860856859583301  0.8619013352565016
  0.1139919727267277  0.6394229098080995  0.9044589737856493
  0.0984782091452515  0.3698167816991118  0.1343336499855381
  0.6245441524591269  0.1229120986429185  0.8693773160111957
  0.6331499254292661  0.8689167751090155  0.1011031598728205
  0.3894727580693776  0.1112999918512495  0.1308125336709071
  0.3719474231602946  0.8862073702066233  0.8687500572830956
  0.6118604663151027  0.6170075606598057  0.3665990119963931
  0.6316945433853226  0.3989924690968567  0.6313945709308605
  0.3689838392998537  0.6172600815238055  0.6263264703191647
  0.3806863578603968  0.3630472394943652  0.3881621756648524
  0.7518502180706311  0.7545470282252561  0.7434158238971675
  0.7452673724947667  0.2357319886374124  0.2520420909497627
  0.2566307229101210  0.7463978518987551  0.2480197733949090
  0.2430879979637461  0.2621779972014110  0.7585330718678541
  0.0007325068682936  0.0302225036407930  0.9997572354985973
  0.9990460447367269  0.5425565148454553  0.4829209006813807
  0.5203397479775614  0.9959462283281533  0.5112485662599927
  0.4776440406094775  0.4856289637645427  0.0014119401518195
 
  0.00000000E+00  0.00000000E+00  0.00000000E+00
  0.00000000E+00  0.00000000E+00  0.00000000E+00
  0.00000000E+00  0.00000000E+00  0.00000000E+00
  0.00000000E+00  0.00000000E+00  0.00000000E+00
  0.00000000E+00  0.00000000E+00  0.00000000E+00
  0.00000000E+00  0.00000000E+00  0.00000000E+00
  0.00000000E+00  0.00000000E+00  0.00000000E+00
  0.00000000E+00  0.00000000E+00  0.00000000E+00
  0.00000000E+00  0.00000000E+00  0.00000000E+00
  0.00000000E+00  0.00000000E+00  0.00000000E+00
  0.00000000E+00  0.00000000E+00  0.00000000E+00
  0.00000000E+00  0.00000000E+00  0.00000000E+00
  0.00000000E+00  0.00000000E+00  0.00000000E+00
  0.00000000E+00  0.00000000E+00  0.00000000E+00
  0.00000000E+00  0.00000000E+00  0.00000000E+00
  0.00000000E+00  0.00000000E+00  0.00000000E+00
  0.00000000E+00  0.00000000E+00  0.00000000E+00
  0.00000000E+00  0.00000000E+00  0.00000000E+00
  0.00000000E+00  0.00000000E+00  0.00000000E+00
  0.00000000E+00  0.00000000E+00  0.00000000E+00
  0.00000000E+00  0.00000000E+00  0.00000000E+00
  0.00000000E+00  0.00000000E+00  0.00000000E+00
  0.00000000E+00  0.00000000E+00  0.00000000E+00
  0.00000000E+00  0.00000000E+00  0.00000000E+00
  0.00000000E+00  0.00000000E+00  0.00000000E+00
  0.00000000E+00  0.00000000E+00  0.00000000E+00
  0.00000000E+00  0.00000000E+00  0.00000000E+00
  0.00000000E+00  0.00000000E+00  0.00000000E+00
  0.00000000E+00  0.00000000E+00  0.00000000E+00
  0.00000000E+00  0.00000000E+00  0.00000000E+00
  0.00000000E+00  0.00000000E+00  0.00000000E+00
  0.00000000E+00  0.00000000E+00  0.00000000E+00
  0.00000000E+00  0.00000000E+00  0.00000000E+00
  0.00000000E+00  0.00000000E+00  0.00000000E+00
  0.00000000E+00  0.00000000E+00  0.00000000E+00
  0.00000000E+00  0.00000000E+00  0.00000000E+00
  0.00000000E+00  0.00000000E+00  0.00000000E+00
  0.00000000E+00  0.00000000E+00  0.00000000E+00
  0.00000000E+00  0.00000000E+00  0.00000000E+00
  0.00000000E+00  0.00000000E+00  0.00000000E+00
  0.00000000E+00  0.00000000E+00  0.00000000E+00
  0.00000000E+00  0.00000000E+00  0.00000000E+00
  0.00000000E+00  0.00000000E+00  0.00000000E+00
  0.00000000E+00  0.00000000E+00  0.00000000E+00
  0.00000000E+00  0.00000000E+00  0.00000000E+00
  0.00000000E+00  0.00000000E+00  0.00000000E+00
  0.00000000E+00  0.00000000E+00  0.00000000E+00
  0.00000000E+00  0.00000000E+00  0.00000000E+00
  0.00000000E+00  0.00000000E+00  0.00000000E+00
  0.00000000E+00  0.00000000E+00  0.00000000E+00
  0.00000000E+00  0.00000000E+00  0.00000000E+00
  0.00000000E+00  0.00000000E+00  0.00000000E+00
