Li24 P4 S20 Cl4                         
   1.00000000000000     
     9.6468745816302999    0.0000000000000000    0.0000000000000000
     0.0000000000000000    9.6468745816302999    0.0000000000000000
     0.0000000000000000    0.0000000000000000    9.6468745816302999
   Li   P    S    Cl
    24     4    20     4
Direct
  0.9730270488565012  0.1559625328032013  0.2230355807313771
  0.9751618543334786  0.6681227464835970  0.7044876433363854
  0.0180668382839215  0.1846652573916998  0.7940109039064538
  0.0214978536723436  0.7001132107563990  0.2721210797314058
  0.2116055930374259  0.1983418144380309  0.9883289052237103
  0.1865890132951478  0.8472090919260964  0.0377951873508309
  0.7919980847958072  0.2127884787558756  0.0195144727175318
  0.8385318889895430  0.8247609146662924  0.9604756098003335
  0.3375345718963914  0.9601991853335505  0.3282018824750139
  0.3085881931504204  0.0451901845002354  0.6721046444837029
  0.7237122963892730  0.9836021588947261  0.6915999346069128
  0.6788039175102725  0.0072126508107857  0.2963487373760856
  0.2020238044015485  0.7067122137148019  0.4783991577249438
  0.1674086695457078  0.3322432489474991  0.5348787226540637
  0.7846205888203883  0.7110257697414966  0.5104151653195146
  0.6631262944955409  0.2115866463004323  0.4784556982134376
  0.2886059295510464  0.4900594615432396  0.8286313908217053
  0.2768528756953685  0.5103768997706979  0.2148976538341003
  0.8123676526598800  0.4568278029544217  0.3175298911230868
  0.6799003552789813  0.5465149508457827  0.8466461225873587
  0.4756698867162257  0.2944505224930936  0.7928014888597872
  0.4793764585441096  0.6900426458863151  0.1610360536056135
  0.5305684989931905  0.3156099107723165  0.1826861729972578
  0.5209744834762020  0.7949554317268621  0.6881492594495526
  0.4967841689937345  0.5001718854906443  0.5021295696062964
  0.5040972036351619  0.9970519391510066  0.9919102109557656
  0.9884211822390654  0.4987448449194289  0.0047755437289965
  0.0062143329393862  0.0022938383115516  0.4989644626282299
  0.1129280226719729  0.8807824750168720  0.6362052503269808
  0.1494392163826603  0.1176485867031687  0.3919918541129519
  0.8879117801110823  0.8868549714913954  0.3637353259897367
  0.8807240190112609  0.1423774708574967  0.5990420818403805
  0.8498823344615403  0.6134474810738908  0.1174910851716007
  0.8797565309544737  0.3860946674586714  0.8619105875164550
  0.1139795689564735  0.6394048398619105  0.9044557130749524
  0.0984800092411575  0.3698259594016804  0.1343218745879113
  0.6245362164191448  0.1229041906355661  0.8693910713953912
  0.6331395115288245  0.8689217289760194  0.1011083005522408
  0.3894819022449667  0.1112954782411890  0.1307973129964282
  0.3719570158708478  0.8862148779999544  0.8687587122293223
  0.6118588256077260  0.6169968307642577  0.3666121143074221
  0.6316806508167261  0.3989885980990451  0.6313858346366032
  0.3689964572599180  0.6172546801987551  0.6263150872023786
  0.3806909159732754  0.3630594317192077  0.3881655323024304
  0.7518508584144499  0.7545461066488102  0.7434084706793627
  0.7452667170347453  0.2357292018375290  0.2520427274198767
  0.2566244239153619  0.7463938580651188  0.2480184785589472
  0.2430912486997840  0.2621693083504653  0.7585420094581465
  0.0007313904009081  0.0302288717127865  0.9997577189730009
  0.9990439711967696  0.5425635858148041  0.4829207513158096
  0.5203441850177271  0.9959430572118251  0.5112509697315204
  0.4776432476121713  0.4856244025293108  0.0014137897709290
 
  0.00000000E+00  0.00000000E+00  0.00000000E+00
  0.00000000E+00  0.00000000E+00  0.00000000E+00
  0.00000000E+00  0.00000000E+00  0.00000000E+00
  0.00000000E+00  0.00000000E+00  0.00000000E+00
  0.00000000E+00  0.00000000E+00  0.00000000E+00
  0.00000000E+00  0.00000000E+00  0.00000000E+00
  0.00000000E+00  0.00000000E+00  0.00000000E+00
  0.00000000E+00  0.00000000E+00  0.00000000E+00
  0.00000000E+00  0.00000000E+00  0.00000000E+00
  0.00000000E+00  0.00000000E+00  0.00000000E+00
  0.00000000E+00  0.00000000E+00  0.00000000E+00
  0.00000000E+00  0.00000000E+00  0.00000000E+00
  0.00000000E+00  0.00000000E+00  0.00000000E+00
  0.00000000E+00  0.00000000E+00  0.00000000E+00
  0.00000000E+00  0.00000000E+00  0.00000000E+00
  0.00000000E+00  0.00000000E+00  0.00000000E+00
  0.00000000E+00  0.00000000E+00  0.00000000E+00
  0.00000000E+00  0.00000000E+00  0.00000000E+00
  0.00000000E+00  0.00000000E+00  0.00000000E+00
  0.00000000E+00  0.00000000E+00  0.00000000E+00
  0.00000000E+00  0.00000000E+00  0.00000000E+00
  0.00000000E+00  0.00000000E+00  0.00000000E+00
  0.00000000E+00  0.00000000E+00  0.00000000E+00
  0.00000000E+00  0.00000000E+00  0.00000000E+00
  0.00000000E+00  0.00000000E+00  0.00000000E+00
  0.00000000E+00  0.00000000E+00  0.00000000E+00
  0.00000000E+00  0.00000000E+00  0.00000000E+00
  0.00000000E+00  0.00000000E+00  0.00000000E+00
  0.00000000E+00  0.00000000E+00  0.00000000E+00
  0.00000000E+00  0.00000000E+00  0.00000000E+00
  0.00000000E+00  0.00000000E+00  0.00000000E+00
  0.00000000E+00  0.00000000E+00  0.00000000E+00
  0.00000000E+00  0.00000000E+00  0.00000000E+00
  0.00000000E+00  0.00000000E+00  0.00000000E+00
  0.00000000E+00  0.00000000E+00  0.00000000E+00
  0.00000000E+00  0.00000000E+00  0.00000000E+00
  0.00000000E+00  0.00000000E+00  0.00000000E+00
  0.00000000E+00  0.00000000E+00  0.00000000E+00
  0.00000000E+00  0.00000000E+00  0.00000000E+00
  0.00000000E+00  0.00000000E+00  0.00000000E+00
  0.00000000E+00  0.00000000E+00  0.00000000E+00
  0.00000000E+00  0.00000000E+00  0.00000000E+00
  0.00000000E+00  0.00000000E+00  0.00000000E+00
  0.00000000E+00  0.00000000E+00  0.00000000E+00
  0.00000000E+00  0.00000000E+00  0.00000000E+00
  0.00000000E+00  0.00000000E+00  0.00000000E+00
  0.00000000E+00  0.00000000E+00  0.00000000E+00
  0.00000000E+00  0.00000000E+00  0.00000000E+00
  0.00000000E+00  0.00000000E+00  0.00000000E+00
  0.00000000E+00  0.00000000E+00  0.00000000E+00
  0.00000000E+00  0.00000000E+00  0.00000000E+00
  0.00000000E+00  0.00000000E+00  0.00000000E+00
