Li24 P4 S20 Cl4                         
   1.00000000000000     
     9.6848989671795884    0.0000000000000000    0.0000000000000000
     0.0000000000000000    9.6848989671795884    0.0000000000000000
     0.0000000000000000    0.0000000000000000    9.6848989671795884
   Li   P    S    Cl
    24     4    20     4
Direct
  0.9469922097105616  0.1849786948021045  0.1734938135156828
  0.9950077351299789  0.8255592033750263  0.8034388414699246
  0.9879317568820529  0.2029708442332820  0.7884626622292675
  0.0355927606549750  0.8299328376731003  0.1653577098829292
  0.2038561650228163  0.1907792213939635  0.9667871406631096
  0.3000589450217526  0.7268723145455782  0.0001401486988517
  0.6459606422464000  0.3222115329264905  0.0424698596573737
  0.6853487565621947  0.6889669784367528  0.9863963844747294
  0.2779176408989790  0.9820183781523456  0.3097161795755795
  0.3116792377573823  0.0588285932423054  0.6672191008691475
  0.7694093998543583  0.9691541448617818  0.8773872705864308
  0.7032143003027643  0.0218617166141416  0.3092292303484984
  0.1827734303473932  0.6786815445923743  0.4544366400895550
  0.1560452548312221  0.3275898847400102  0.5265322602649942
  0.7952944429338196  0.7043942605495972  0.5172145829377996
  0.8005170251226557  0.2860100260644904  0.4880274811927020
  0.3096153186088597  0.4621682041460858  0.7968772041012196
  0.3092741228940218  0.5214087863586618  0.1850375592270838
  0.8144777384069998  0.4782900569580372  0.2896944897425155
  0.9120454322128071  0.5500738573715510  0.7221096042133249
  0.5461887854298492  0.8445248049509532  0.6668387397919894
  0.4817497897291216  0.7984770467968739  0.2866422564009356
  0.5069383536469565  0.2155936365030470  0.3292301067736534
  0.5981934641837101  0.5594393321629116  0.7672027555562257
  0.4954748320958743  0.5028602093946499  0.4955348607264392
  0.4944689977566325  0.0201233907001364  0.9906981682897312
  0.9928164578790593  0.5006491894813631  0.0008933800951581
  0.9913942818624737  0.9969617618061274  0.4957723936782493
  0.1322638801979013  0.8804362925060762  0.6034907831111698
  0.0954981226690925  0.1373515754321298  0.3746236820360407
  0.8858433085586250  0.8696781660693138  0.3623961780345252
  0.8494042362537352  0.0880242629684875  0.6238594122555839
  0.8847919355943582  0.6377095251231081  0.1201659602412820
  0.8509968211052976  0.3850562022001319  0.8922605679337435
  0.1150378025682704  0.6140995486494366  0.8651603160550844
  0.1126178945884511  0.3750426532653419  0.1198936227676211
  0.6024333851280780  0.1495413361212838  0.8675695143636272
  0.6277390818935602  0.8955795123778676  0.1041405700864263
  0.3744828625945468  0.1293702703978376  0.1273975485815366
  0.3785920126433672  0.9012436637412663  0.8571863604341969
  0.6197852994035074  0.6162919354787491  0.3652972424602816
  0.6058128062781756  0.3714967024939409  0.6157881326514268
  0.3901428213326877  0.6376381033385775  0.6235935042961268
  0.3510109794798991  0.3943381203249812  0.3840619098778895
  0.7577583679714278  0.7459077179854979  0.7554863024502688
  0.7339805996370580  0.2544437753528251  0.2580804831601889
  0.2535374766818728  0.7531890589869705  0.2328019771148531
  0.2111691373307058  0.2573691299095026  0.7425972124766207
  0.9948141400617774  0.0111415130696882  0.9831759720619456
  0.9697604979499908  0.5035604700121441  0.4930861598682632
  0.4882358865398799  0.9923332993474618  0.4611096947833070
  0.4844972455520646  0.5265012420135261  0.9863413378448876
 
  0.00000000E+00  0.00000000E+00  0.00000000E+00
  0.00000000E+00  0.00000000E+00  0.00000000E+00
  0.00000000E+00  0.00000000E+00  0.00000000E+00
  0.00000000E+00  0.00000000E+00  0.00000000E+00
  0.00000000E+00  0.00000000E+00  0.00000000E+00
  0.00000000E+00  0.00000000E+00  0.00000000E+00
  0.00000000E+00  0.00000000E+00  0.00000000E+00
  0.00000000E+00  0.00000000E+00  0.00000000E+00
  0.00000000E+00  0.00000000E+00  0.00000000E+00
  0.00000000E+00  0.00000000E+00  0.00000000E+00
  0.00000000E+00  0.00000000E+00  0.00000000E+00
  0.00000000E+00  0.00000000E+00  0.00000000E+00
  0.00000000E+00  0.00000000E+00  0.00000000E+00
  0.00000000E+00  0.00000000E+00  0.00000000E+00
  0.00000000E+00  0.00000000E+00  0.00000000E+00
  0.00000000E+00  0.00000000E+00  0.00000000E+00
  0.00000000E+00  0.00000000E+00  0.00000000E+00
  0.00000000E+00  0.00000000E+00  0.00000000E+00
  0.00000000E+00  0.00000000E+00  0.00000000E+00
  0.00000000E+00  0.00000000E+00  0.00000000E+00
  0.00000000E+00  0.00000000E+00  0.00000000E+00
  0.00000000E+00  0.00000000E+00  0.00000000E+00
  0.00000000E+00  0.00000000E+00  0.00000000E+00
  0.00000000E+00  0.00000000E+00  0.00000000E+00
  0.00000000E+00  0.00000000E+00  0.00000000E+00
  0.00000000E+00  0.00000000E+00  0.00000000E+00
  0.00000000E+00  0.00000000E+00  0.00000000E+00
  0.00000000E+00  0.00000000E+00  0.00000000E+00
  0.00000000E+00  0.00000000E+00  0.00000000E+00
  0.00000000E+00  0.00000000E+00  0.00000000E+00
  0.00000000E+00  0.00000000E+00  0.00000000E+00
  0.00000000E+00  0.00000000E+00  0.00000000E+00
  0.00000000E+00  0.00000000E+00  0.00000000E+00
  0.00000000E+00  0.00000000E+00  0.00000000E+00
  0.00000000E+00  0.00000000E+00  0.00000000E+00
  0.00000000E+00  0.00000000E+00  0.00000000E+00
  0.00000000E+00  0.00000000E+00  0.00000000E+00
  0.00000000E+00  0.00000000E+00  0.00000000E+00
  0.00000000E+00  0.00000000E+00  0.00000000E+00
  0.00000000E+00  0.00000000E+00  0.00000000E+00
  0.00000000E+00  0.00000000E+00  0.00000000E+00
  0.00000000E+00  0.00000000E+00  0.00000000E+00
  0.00000000E+00  0.00000000E+00  0.00000000E+00
  0.00000000E+00  0.00000000E+00  0.00000000E+00
  0.00000000E+00  0.00000000E+00  0.00000000E+00
  0.00000000E+00  0.00000000E+00  0.00000000E+00
  0.00000000E+00  0.00000000E+00  0.00000000E+00
  0.00000000E+00  0.00000000E+00  0.00000000E+00
  0.00000000E+00  0.00000000E+00  0.00000000E+00
  0.00000000E+00  0.00000000E+00  0.00000000E+00
  0.00000000E+00  0.00000000E+00  0.00000000E+00
  0.00000000E+00  0.00000000E+00  0.00000000E+00
