Li24 P4 S20 Cl4                         
   1.00000000000000     
     9.6848989671795884    0.0000000000000000    0.0000000000000000
     0.0000000000000000    9.6848989671795884    0.0000000000000000
     0.0000000000000000    0.0000000000000000    9.6848989671795884
   Li   P    S    Cl
    24     4    20     4
Direct
  0.9469958474443274  0.1849879215861350  0.1734890348034384
  0.9950096618459980  0.8255635192904336  0.8034282177780696
  0.9879350832581864  0.2029633611774599  0.7884669187760878
  0.0355945393333172  0.8299338134037839  0.1653576014730760
  0.2038631202450176  0.1907971240453961  0.9667916899252234
  0.3000456884460263  0.7268646705656963  0.0001391279102023
  0.6459582224730127  0.3222080356418004  0.0424638164413196
  0.6853488362831968  0.6889552109063857  0.9863988574506166
  0.2779179025830345  0.9820171941111724  0.3097179235279626
  0.3116772535071277  0.0588256961082863  0.6672230204301499
  0.7694134451244921  0.9691454969820654  0.8774286924875270
  0.7032173597353832  0.0218609830093754  0.3092245860203491
  0.1827566384003063  0.6786821217876025  0.4544313236190831
  0.1560429138237325  0.3275869379840159  0.5265294283721005
  0.7952881377584688  0.7043971280205881  0.5172174185988325
  0.8005117801141637  0.2860042141701271  0.4880273781492761
  0.3096102970528065  0.4621769343419118  0.7968617572318948
  0.3092940081789308  0.5214086010784200  0.1850451039602206
  0.8144847707769713  0.4782880642631326  0.2896960300846345
  0.9120238857794973  0.5500688603256449  0.7221136773676378
  0.5461939144490557  0.8445435578990157  0.6668450152127932
  0.4817467564329618  0.7984748876137573  0.2866537620760354
  0.5069390632484172  0.2155865905246586  0.3292176644577296
  0.5981753015611915  0.5594648820566519  0.7671972083814182
  0.4954785180027130  0.5028726538360715  0.4955298550683906
  0.4944635796123720  0.0201238169304432  0.9906984984668625
  0.9928242087543993  0.5006507922350920  0.0008945157954088
  0.9913965002637397  0.9969556255672174  0.4957661212239444
  0.1322705188547957  0.8804414808328147  0.6034871141078781
  0.0954930878955054  0.1373550735859865  0.3746242817474226
  0.8858431067863108  0.8696740684848052  0.3623948528360970
  0.8494125602236693  0.0880240265238541  0.6238603842364654
  0.8847936164971415  0.6377068219704043  0.1201675228127996
  0.8510023851598447  0.3850519518629199  0.8922682591897058
  0.1150301497950466  0.6140967495222753  0.8651489427439003
  0.1126238573967555  0.3750492627570523  0.1198946650588155
  0.6024372630053776  0.1495261988136107  0.8675703256711103
  0.6277294336875627  0.8955709058649006  0.1041393384112865
  0.3744767159317774  0.1293639783821874  0.1274003764905558
  0.3785870889676133  0.9012312412421437  0.8571884688014606
  0.6197876750520379  0.6162897308726585  0.3652905724572832
  0.6058231886182810  0.3715105094801956  0.6158005623360197
  0.3901480393854158  0.6376465246648024  0.6235826597159573
  0.3510235627518981  0.3943336570343021  0.3840667709212013
  0.7577518343072285  0.7459088695527711  0.7554908250477368
  0.7339833507984963  0.2544407486196505  0.2580844598769190
  0.2535390490327600  0.7531867880374392  0.2327926901070683
  0.2111680092372978  0.2573705309156367  0.7425956505737545
  0.9948186098696965  0.0111403193019868  0.9831749500548597
  0.9697582863182461  0.5035618623466789  0.4930905763291946
  0.4882424548843787  0.9923355383073655  0.4611059632942514
  0.4844928010540173  0.5264989955611057  0.9863308120879708
 
  0.00000000E+00  0.00000000E+00  0.00000000E+00
  0.00000000E+00  0.00000000E+00  0.00000000E+00
  0.00000000E+00  0.00000000E+00  0.00000000E+00
  0.00000000E+00  0.00000000E+00  0.00000000E+00
  0.00000000E+00  0.00000000E+00  0.00000000E+00
  0.00000000E+00  0.00000000E+00  0.00000000E+00
  0.00000000E+00  0.00000000E+00  0.00000000E+00
  0.00000000E+00  0.00000000E+00  0.00000000E+00
  0.00000000E+00  0.00000000E+00  0.00000000E+00
  0.00000000E+00  0.00000000E+00  0.00000000E+00
  0.00000000E+00  0.00000000E+00  0.00000000E+00
  0.00000000E+00  0.00000000E+00  0.00000000E+00
  0.00000000E+00  0.00000000E+00  0.00000000E+00
  0.00000000E+00  0.00000000E+00  0.00000000E+00
  0.00000000E+00  0.00000000E+00  0.00000000E+00
  0.00000000E+00  0.00000000E+00  0.00000000E+00
  0.00000000E+00  0.00000000E+00  0.00000000E+00
  0.00000000E+00  0.00000000E+00  0.00000000E+00
  0.00000000E+00  0.00000000E+00  0.00000000E+00
  0.00000000E+00  0.00000000E+00  0.00000000E+00
  0.00000000E+00  0.00000000E+00  0.00000000E+00
  0.00000000E+00  0.00000000E+00  0.00000000E+00
  0.00000000E+00  0.00000000E+00  0.00000000E+00
  0.00000000E+00  0.00000000E+00  0.00000000E+00
  0.00000000E+00  0.00000000E+00  0.00000000E+00
  0.00000000E+00  0.00000000E+00  0.00000000E+00
  0.00000000E+00  0.00000000E+00  0.00000000E+00
  0.00000000E+00  0.00000000E+00  0.00000000E+00
  0.00000000E+00  0.00000000E+00  0.00000000E+00
  0.00000000E+00  0.00000000E+00  0.00000000E+00
  0.00000000E+00  0.00000000E+00  0.00000000E+00
  0.00000000E+00  0.00000000E+00  0.00000000E+00
  0.00000000E+00  0.00000000E+00  0.00000000E+00
  0.00000000E+00  0.00000000E+00  0.00000000E+00
  0.00000000E+00  0.00000000E+00  0.00000000E+00
  0.00000000E+00  0.00000000E+00  0.00000000E+00
  0.00000000E+00  0.00000000E+00  0.00000000E+00
  0.00000000E+00  0.00000000E+00  0.00000000E+00
  0.00000000E+00  0.00000000E+00  0.00000000E+00
  0.00000000E+00  0.00000000E+00  0.00000000E+00
  0.00000000E+00  0.00000000E+00  0.00000000E+00
  0.00000000E+00  0.00000000E+00  0.00000000E+00
  0.00000000E+00  0.00000000E+00  0.00000000E+00
  0.00000000E+00  0.00000000E+00  0.00000000E+00
  0.00000000E+00  0.00000000E+00  0.00000000E+00
  0.00000000E+00  0.00000000E+00  0.00000000E+00
  0.00000000E+00  0.00000000E+00  0.00000000E+00
  0.00000000E+00  0.00000000E+00  0.00000000E+00
  0.00000000E+00  0.00000000E+00  0.00000000E+00
  0.00000000E+00  0.00000000E+00  0.00000000E+00
  0.00000000E+00  0.00000000E+00  0.00000000E+00
  0.00000000E+00  0.00000000E+00  0.00000000E+00
