Li24 P4 S20 Cl4                         
   1.00000000000000     
     9.6601287618801273    0.0000000000000000    0.0000000000000000
     0.0000000000000000    9.6601287618801273    0.0000000000000000
     0.0000000000000000    0.0000000000000000    9.6601287618801273
   Li   P    S    Cl
    24     4    20     4
Direct
  0.9943072738059102  0.2074611940881823  0.1633245699920764
  0.9628184487231095  0.6813720141900093  0.6730751600739785
  0.0541292639157223  0.1814763332413303  0.8201426445903992
  0.0227490749327844  0.7074681624069344  0.3299356581559134
  0.4944279552277950  0.2074622382113746  0.6634347700994684
  0.1641105337883527  0.8289948742197535  0.0370124539673094
  0.7020713137082372  0.2855963309705189  0.0133712361033679
  0.8145505017313796  0.7856103640550122  0.9800472813567138
  0.3151106894275063  0.9791925978222548  0.2854862871124327
  0.2982199491149858  0.0183129985070476  0.6934886061421568
  0.8152952355564451  0.9791414457837775  0.7857818363393875
  0.7982098731786942  0.0183159840951054  0.1935899148308931
  0.3148939746818515  0.7856630219434256  0.4798380832565419
  0.2024812559887836  0.2855101997171674  0.5131141310992470
  0.6642023637964628  0.8292562250352200  0.5371690479703657
  0.8528218458955350  0.3289917053332577  0.4562432123826114
  0.2017528704008816  0.4791664671625132  0.7073384447000886
  0.2187210586877842  0.5183023178248952  0.2996179033848668
  0.7020342218461098  0.4792471061857976  0.2077121012403070
  0.7186888413281813  0.5183318911972457  0.7997711449063375
  0.3527656745110213  0.3292108026396404  0.9560608148882717
  0.4629335133776958  0.6812805031013092  0.1731685103368001
  0.5540549925996102  0.1814182757827703  0.3200826753952522
  0.5225866026782419  0.7074546534954149  0.8298183602861343
  0.5153036437652209  0.5030561161299367  0.5001077619306818
  0.5017256979727568  0.0028820512432365  0.9930966016439927
  0.0151977503256090  0.5029559972607999  0.0000712407242862
  0.0017655074457366  0.0028417690536633  0.4930984666790249
  0.1186382325753308  0.8725251678157027  0.6146319250949357
  0.1229723714385637  0.1146913265370451  0.3585022395913268
  0.8625622849723158  0.8824599953283847  0.3875659575724736
  0.9000237578042266  0.1394945561741526  0.6191730458784248
  0.8940654718290298  0.6148465220418969  0.1346809306678610
  0.8983098730061693  0.3726211664337290  0.8785670840618583
  0.1169894594545474  0.6395332583187587  0.8739745634048224
  0.1543829891125863  0.3825163030946949  0.1056017169262585
  0.6230626722079364  0.1146610062706761  0.8585639187121827
  0.6184919194603741  0.8726502510046883  0.1148263692281674
  0.3999789088916128  0.1396546394810135  0.1190432818403596
  0.3625317693820306  0.8825197148834816  0.8875320806034633
  0.6170938011898338  0.6397341008973765  0.3741435300955197
  0.6544197460288043  0.3826019498561714  0.6056946276308676
  0.3939554397130673  0.6148002542864838  0.6346432705860090
  0.3985245554594263  0.3727909164695395  0.3783844431079706
  0.7474569327269359  0.7514170618536204  0.7523912195529452
  0.7695063659258543  0.2514070891777295  0.2409498060858165
  0.2475269772987727  0.7513836332993152  0.2522609524590236
  0.2695327611414743  0.2514220172994062  0.7408028516643962
  0.9740817467663823  0.9992334320466886  0.9972197565259530
  0.0429459220617419  0.4991982995071930  0.4957618345721767
  0.4740870582663363  0.9993159917543943  0.4971457968607733
  0.5429450648743666  0.4992946854703695  0.9958842576876166
 
  0.00000000E+00  0.00000000E+00  0.00000000E+00
  0.00000000E+00  0.00000000E+00  0.00000000E+00
  0.00000000E+00  0.00000000E+00  0.00000000E+00
  0.00000000E+00  0.00000000E+00  0.00000000E+00
  0.00000000E+00  0.00000000E+00  0.00000000E+00
  0.00000000E+00  0.00000000E+00  0.00000000E+00
  0.00000000E+00  0.00000000E+00  0.00000000E+00
  0.00000000E+00  0.00000000E+00  0.00000000E+00
  0.00000000E+00  0.00000000E+00  0.00000000E+00
  0.00000000E+00  0.00000000E+00  0.00000000E+00
  0.00000000E+00  0.00000000E+00  0.00000000E+00
  0.00000000E+00  0.00000000E+00  0.00000000E+00
  0.00000000E+00  0.00000000E+00  0.00000000E+00
  0.00000000E+00  0.00000000E+00  0.00000000E+00
  0.00000000E+00  0.00000000E+00  0.00000000E+00
  0.00000000E+00  0.00000000E+00  0.00000000E+00
  0.00000000E+00  0.00000000E+00  0.00000000E+00
  0.00000000E+00  0.00000000E+00  0.00000000E+00
  0.00000000E+00  0.00000000E+00  0.00000000E+00
  0.00000000E+00  0.00000000E+00  0.00000000E+00
  0.00000000E+00  0.00000000E+00  0.00000000E+00
  0.00000000E+00  0.00000000E+00  0.00000000E+00
  0.00000000E+00  0.00000000E+00  0.00000000E+00
  0.00000000E+00  0.00000000E+00  0.00000000E+00
  0.00000000E+00  0.00000000E+00  0.00000000E+00
  0.00000000E+00  0.00000000E+00  0.00000000E+00
  0.00000000E+00  0.00000000E+00  0.00000000E+00
  0.00000000E+00  0.00000000E+00  0.00000000E+00
  0.00000000E+00  0.00000000E+00  0.00000000E+00
  0.00000000E+00  0.00000000E+00  0.00000000E+00
  0.00000000E+00  0.00000000E+00  0.00000000E+00
  0.00000000E+00  0.00000000E+00  0.00000000E+00
  0.00000000E+00  0.00000000E+00  0.00000000E+00
  0.00000000E+00  0.00000000E+00  0.00000000E+00
  0.00000000E+00  0.00000000E+00  0.00000000E+00
  0.00000000E+00  0.00000000E+00  0.00000000E+00
  0.00000000E+00  0.00000000E+00  0.00000000E+00
  0.00000000E+00  0.00000000E+00  0.00000000E+00
  0.00000000E+00  0.00000000E+00  0.00000000E+00
  0.00000000E+00  0.00000000E+00  0.00000000E+00
  0.00000000E+00  0.00000000E+00  0.00000000E+00
  0.00000000E+00  0.00000000E+00  0.00000000E+00
  0.00000000E+00  0.00000000E+00  0.00000000E+00
  0.00000000E+00  0.00000000E+00  0.00000000E+00
  0.00000000E+00  0.00000000E+00  0.00000000E+00
  0.00000000E+00  0.00000000E+00  0.00000000E+00
  0.00000000E+00  0.00000000E+00  0.00000000E+00
  0.00000000E+00  0.00000000E+00  0.00000000E+00
  0.00000000E+00  0.00000000E+00  0.00000000E+00
  0.00000000E+00  0.00000000E+00  0.00000000E+00
  0.00000000E+00  0.00000000E+00  0.00000000E+00
  0.00000000E+00  0.00000000E+00  0.00000000E+00
