Li24 P4 S20 Cl4                         
   1.00000000000000     
     9.6601287618801273    0.0000000000000000    0.0000000000000000
     0.0000000000000000    9.6601287618801273    0.0000000000000000
     0.0000000000000000    0.0000000000000000    9.6601287618801273
   Li   P    S    Cl
    24     4    20     4
Direct
  0.9943028882264926  0.2074630698304176  0.1633308061705918
  0.9628232623843758  0.6813787668113633  0.6730793919296616
  0.0541242053285487  0.1814838524386104  0.8201399889191805
  0.0227544407128022  0.7074692545584185  0.3299300764041391
  0.4944253992002245  0.2074631365986050  0.6634446694312501
  0.1641128906288003  0.8289864915201619  0.0370079025771801
  0.7020696773953290  0.2855973811341102  0.0133763298517025
  0.8145427387023503  0.7856115333525295  0.9800478217258473
  0.3151010641399026  0.9791934005008827  0.2854845912856945
  0.2982170238016266  0.0183144520871821  0.6934938786660538
  0.8152882663903327  0.9791418209569116  0.7857858919103791
  0.7982069688019635  0.0183171243679041  0.1935976087033637
  0.3148947008017018  0.7856647932236385  0.4798340191308199
  0.2024860267219211  0.2855085530038508  0.5131149110970838
  0.6642071962864122  0.8292514216826490  0.5371665248557491
  0.8528176930358242  0.3289843650261659  0.4562502255621368
  0.2017612103219122  0.4791666531353513  0.7073318542648863
  0.2187226621563738  0.5183030028627371  0.2996107948573936
  0.7020505400784600  0.4792501092777997  0.2077126684886323
  0.7186897185150443  0.5183327945922684  0.7997664040416126
  0.3527611058515703  0.3292076319717481  0.9560637574240403
  0.4629405470024039  0.6812850186777268  0.1731742850066738
  0.5540491470945739  0.1814239443224039  0.3200793844608540
  0.5225882260582964  0.7074559849229587  0.8298103970880604
  0.5152938003759431  0.5030558565842398  0.5001022076286858
  0.5017255117313795  0.0028818411333873  0.9930986564641913
  0.0152027727295803  0.5029566703247283  0.0000655439425969
  0.0017663385634137  0.0028401745122153  0.4930998445198895
  0.1186420703388293  0.8725267293510299  0.6146271754685557
  0.1229688700187879  0.1146931662858464  0.3585069697017502
  0.8625699740803370  0.8824587916859201  0.3875671121994131
  0.9000231647693937  0.1394858177232692  0.6191740094705978
  0.8940723360162224  0.6148521313523929  0.1346739125255070
  0.8983056506887124  0.3726233882487477  0.8785696701911903
  0.1169932590626317  0.6395223307170568  0.8739725664140963
  0.1543759021117381  0.3825156510796077  0.1055989228601888
  0.6230603659975316  0.1146627584259718  0.8585709412342197
  0.6184915820509076  0.8726546664350607  0.1148266786182859
  0.3999764780789477  0.1396491979687156  0.1190421994050226
  0.3625377741432203  0.8825202036838817  0.8875327556638268
  0.6170978926702730  0.6397270842476388  0.3741441127991578
  0.6544111667132597  0.3826016897593689  0.6056944651669696
  0.3939581638526235  0.6148026471314196  0.6346356770833310
  0.3985222701240403  0.3727946089373262  0.3783853915480151
  0.7474593690310556  0.7514171958324027  0.7523916595310851
  0.7695035002929131  0.2514075476043374  0.2409533376399224
  0.2475311454998135  0.7513830761930151  0.2522585926441749
  0.2695299630593482  0.2514222950491956  0.7408037968592396
  0.9740764373960218  0.9992316188541750  0.9972222693508854
  0.0429498493454474  0.4991968836197955  0.4957603916799300
  0.4740826826252729  0.9993152379116950  0.4971466740095067
  0.5429501189952362  0.4992931624912700  0.9958846615268868
 
  0.00000000E+00  0.00000000E+00  0.00000000E+00
  0.00000000E+00  0.00000000E+00  0.00000000E+00
  0.00000000E+00  0.00000000E+00  0.00000000E+00
  0.00000000E+00  0.00000000E+00  0.00000000E+00
  0.00000000E+00  0.00000000E+00  0.00000000E+00
  0.00000000E+00  0.00000000E+00  0.00000000E+00
  0.00000000E+00  0.00000000E+00  0.00000000E+00
  0.00000000E+00  0.00000000E+00  0.00000000E+00
  0.00000000E+00  0.00000000E+00  0.00000000E+00
  0.00000000E+00  0.00000000E+00  0.00000000E+00
  0.00000000E+00  0.00000000E+00  0.00000000E+00
  0.00000000E+00  0.00000000E+00  0.00000000E+00
  0.00000000E+00  0.00000000E+00  0.00000000E+00
  0.00000000E+00  0.00000000E+00  0.00000000E+00
  0.00000000E+00  0.00000000E+00  0.00000000E+00
  0.00000000E+00  0.00000000E+00  0.00000000E+00
  0.00000000E+00  0.00000000E+00  0.00000000E+00
  0.00000000E+00  0.00000000E+00  0.00000000E+00
  0.00000000E+00  0.00000000E+00  0.00000000E+00
  0.00000000E+00  0.00000000E+00  0.00000000E+00
  0.00000000E+00  0.00000000E+00  0.00000000E+00
  0.00000000E+00  0.00000000E+00  0.00000000E+00
  0.00000000E+00  0.00000000E+00  0.00000000E+00
  0.00000000E+00  0.00000000E+00  0.00000000E+00
  0.00000000E+00  0.00000000E+00  0.00000000E+00
  0.00000000E+00  0.00000000E+00  0.00000000E+00
  0.00000000E+00  0.00000000E+00  0.00000000E+00
  0.00000000E+00  0.00000000E+00  0.00000000E+00
  0.00000000E+00  0.00000000E+00  0.00000000E+00
  0.00000000E+00  0.00000000E+00  0.00000000E+00
  0.00000000E+00  0.00000000E+00  0.00000000E+00
  0.00000000E+00  0.00000000E+00  0.00000000E+00
  0.00000000E+00  0.00000000E+00  0.00000000E+00
  0.00000000E+00  0.00000000E+00  0.00000000E+00
  0.00000000E+00  0.00000000E+00  0.00000000E+00
  0.00000000E+00  0.00000000E+00  0.00000000E+00
  0.00000000E+00  0.00000000E+00  0.00000000E+00
  0.00000000E+00  0.00000000E+00  0.00000000E+00
  0.00000000E+00  0.00000000E+00  0.00000000E+00
  0.00000000E+00  0.00000000E+00  0.00000000E+00
  0.00000000E+00  0.00000000E+00  0.00000000E+00
  0.00000000E+00  0.00000000E+00  0.00000000E+00
  0.00000000E+00  0.00000000E+00  0.00000000E+00
  0.00000000E+00  0.00000000E+00  0.00000000E+00
  0.00000000E+00  0.00000000E+00  0.00000000E+00
  0.00000000E+00  0.00000000E+00  0.00000000E+00
  0.00000000E+00  0.00000000E+00  0.00000000E+00
  0.00000000E+00  0.00000000E+00  0.00000000E+00
  0.00000000E+00  0.00000000E+00  0.00000000E+00
  0.00000000E+00  0.00000000E+00  0.00000000E+00
  0.00000000E+00  0.00000000E+00  0.00000000E+00
  0.00000000E+00  0.00000000E+00  0.00000000E+00
