Li24 P4 S20 Cl4
1.0
        9.6575574875         0.0000000000         0.0000000000
        0.0000000000         9.6575574875         0.0000000000
        0.0000000000         0.0000000000         9.6575574875
   Li    P    S   Cl
   24    4   20    4
Direct
     0.069430001         0.795029998         0.069399998
     0.307090014         0.028000001         0.692910016
     0.028000001         0.307090014         0.692910016
     0.991249979         0.710829973         0.710829973
     0.971469998         0.331180006         0.331180006
     0.692910016         0.692910016         0.972000003
     0.710829973         0.491250008         0.210830003
     0.692910016         0.807089984         0.527999997
     0.668820024         0.168819994         0.471469998
     0.289169997         0.789170027         0.491250008
     0.307090014         0.192910001         0.527999997
     0.807089984         0.028000001         0.192910001
     0.831179976         0.971469998         0.831179976
     0.210830003         0.991249979         0.210830003
     0.527999997         0.307090014         0.192910001
     0.471469998         0.331180006         0.831179976
     0.807089984         0.527999997         0.692910016
     0.168819994         0.528530002         0.331180006
     0.210830003         0.491250008         0.710829973
     0.527999997         0.807089984         0.692910016
     0.472000003         0.807089984         0.307090014
     0.192910001         0.192910001         0.972000003
     0.789170027         0.210830003         0.008750000
     0.331180006         0.668820024         0.028530000
     0.500228047         0.506667852         0.498751223
     0.507232964         0.993414462         0.006888600
     0.004553810         0.495983630         0.002155210
     0.004899700         0.001177050         0.509183407
     0.127354518         0.897842944         0.649844885
     0.124007121         0.140655667         0.400192976
     0.917438745         0.861993015         0.377877414
     0.858011246         0.108711392         0.619671762
     0.887847722         0.626381576         0.122519977
     0.886880040         0.380458832         0.868583143
     0.137059957         0.622371733         0.891079843
     0.116955101         0.374528050         0.134468257
     0.620965838         0.112012044         0.871915162
     0.641067982         0.876813412         0.123465180
     0.379201710         0.118031271         0.122724362
     0.382860273         0.859386444         0.898412108
     0.635869801         0.628466368         0.389905870
     0.606171787         0.364053696         0.616498649
     0.385015309         0.631099880         0.626753449
     0.370834768         0.400144577         0.368659168
     0.764259517         0.743319333         0.747367144
     0.742724776         0.246712103         0.251508027
     0.256918460         0.758855939         0.246943116
     0.258746535         0.253292918         0.755048215
     0.994624734         0.018148789         0.022211591
     0.015222540         0.492723882         0.532855272
     0.492106587         0.977220953         0.515244901
     0.531713486         0.490813673         0.019283479
Li24 P4 S20 Cl4
1.0
        9.6601285934         0.0000000000         0.0000000000
        0.0000000000         9.6601285934         0.0000000000
        0.0000000000         0.0000000000         9.6601285934
   Li    P    S   Cl
   24    4   20    4
Direct
     0.307090014         0.028000001         0.692910016
     0.307090014         0.972000003         0.307090014
     0.028000001         0.692910016         0.307090014
     0.971469998         0.668820024         0.668820024
     0.710829973         0.289169997         0.008750000
     0.710829973         0.508750021         0.789170027
     0.710829973         0.491250008         0.210830003
     0.028530000         0.168819994         0.831179976
     0.972000003         0.192910001         0.192910001
     0.668820024         0.831179976         0.528530002
     0.307090014         0.807089984         0.472000003
     0.807089984         0.028000001         0.192910001
     0.807089984         0.972000003         0.807089984
     0.527999997         0.692910016         0.807089984
     0.471469998         0.668820024         0.168819994
     0.210830003         0.289169997         0.508750021
     0.210830003         0.508750021         0.289169997
     0.210830003         0.491250008         0.710829973
     0.528530002         0.168819994         0.331180006
     0.472000003         0.192910001         0.692910016
     0.168819994         0.831179976         0.028530000
     0.807089984         0.807089984         0.972000003
     0.331180006         0.331180006         0.971469998
     0.831179976         0.331180006         0.471469998
     0.515303612         0.503056109         0.500107765
     0.501725674         0.002882050         0.993096590
     0.015197750         0.502955973         0.000071240
     0.001765510         0.002841770         0.493098468
     0.118638232         0.872525156         0.614631951
     0.122972369         0.114691332         0.358502239
     0.862562299         0.882459998         0.387565970
     0.900023758         0.139494553         0.619173050
     0.894065499         0.614846528         0.134680927
     0.898309886         0.372621179         0.878567100
     0.116989464         0.639533281         0.873974562
     0.154382989         0.382516295         0.105601721
     0.623062670         0.114661008         0.858563900
     0.618491948         0.872650266         0.114826366
     0.399978906         0.139654636         0.119043283
     0.362531781         0.882519722         0.887532055
     0.617093801         0.639734089         0.374143541
     0.654419780         0.382601947         0.605694652
     0.393955439         0.614800274         0.634643257
     0.398524553         0.372790933         0.378384441
     0.747456908         0.751417041         0.752391219
     0.769506395         0.251407087         0.240949810
     0.247526973         0.751383603         0.252260953
     0.269532770         0.251422018         0.740802824
     0.974081755         0.999233425         0.997219741
     0.042945921         0.499198288         0.495761842
     0.474087059         0.999315977         0.497145802
     0.542945087         0.499294698         0.995884240
