Li24 P4 S20 Cl4                         
   1.00000000000000     
     9.6487635206927429    0.0000000000000000    0.0000000000000000
     0.0000000000000000    9.6487635206927429    0.0000000000000000
     0.0000000000000000    0.0000000000000000    9.6487635206927429
   Li   P    S    Cl
    24     4    20     4
Direct
  0.9667554357808308  0.3161234424001960  0.3272844254505042
  0.9719352307267038  0.7050993504930975  0.7020491212410941
  0.9986306071570388  0.2913522296404973  0.7091535668700008
  0.0382172344604417  0.6685909220155055  0.3451419076215849
  0.3164405137524623  0.3203758092393414  0.9529951926689426
  0.1564837077910502  0.8023620373726718  0.0524817933423716
  0.8047764058066857  0.2062687038205131  0.0098119982799930
  0.7960453762642493  0.7820205170367603  0.9831577494562596
  0.3039049925232536  0.9765066053463587  0.2895432638340211
  0.1869655855384329  0.0385662229966793  0.8400014573797379
  0.8203609035605645  0.9761892029632340  0.7940787307408252
  0.8302993882796094  0.0163880336809614  0.2090654423890822
  0.3027626794736920  0.7945660631438883  0.4957133825587208
  0.3138072685077050  0.1825638436933115  0.5441223803655403
  0.6819920944808712  0.8069814129905412  0.5115098111180512
  0.6661064975716621  0.1789830131190954  0.4605800721497105
  0.2043131194854263  0.4752737225162477  0.6799526283455941
  0.2758827808387759  0.5146745849070329  0.2009222702764895
  0.7117765857355267  0.4722242146358351  0.1822790152004763
  0.7719057334939854  0.5232091052590380  0.6507531899356254
  0.5281167231677927  0.6410727727425682  0.8445646868463408
  0.4827043052357948  0.6991521558219609  0.2113829479504480
  0.5155456706618323  0.2800989663828909  0.2076764253194908
  0.5365168654114985  0.9212649584170579  0.7215123872618713
  0.4979423994349412  0.4845546649745381  0.5063027072802857
  0.5009650368480069  0.9925905078168610  0.0051729279260927
  0.9979889426607228  0.4968078344467899  0.9984866261380114
  0.0006511867243319  0.9977618928032781  0.5036991582773568
  0.1214957731173795  0.8887369681732495  0.6411426625999662
  0.1210482234237866  0.1191180115786340  0.3790642394457003
  0.8874727578975705  0.8599784047793713  0.3873170842836380
  0.8602254973623350  0.1215228647931971  0.6057315772988531
  0.8977182111240716  0.6242880853612258  0.1382876341638539
  0.8502310798197004  0.4043707998564423  0.8758751087887771
  0.1268797583486396  0.6181542186458586  0.8810209245916701
  0.1088221742780785  0.3554280696920997  0.1115200972335591
  0.6147517778302414  0.1091027852683675  0.8696389236240507
  0.6255313891258814  0.8819888398135272  0.1376703039479588
  0.3637181211382686  0.1201617471055522  0.1061748933685028
  0.3749908488757901  0.8558053176582767  0.8979213813961280
  0.6341931917118255  0.5989713797398569  0.3867198260056988
  0.5980754952291054  0.3505586906780809  0.6327419827593298
  0.3925688814221279  0.6210522567875907  0.6333526277488742
  0.3637276660761261  0.3726601683528750  0.3844965851676845
  0.7328000310786600  0.7532357395976622  0.7479088978476586
  0.7493994767784199  0.2421555599574121  0.2421248261280685
  0.2534891513628971  0.7441175273063521  0.2666723132526286
  0.2256201919851063  0.2515509009398367  0.7495519542336215
  0.9692897276402760  0.9843120746079784  0.9925402648359872
  0.9944852534387471  0.5021982382056753  0.5311585424383652
  0.4855817389556713  0.9855061013467085  0.4913153445141017
  0.4885341906053648  0.4946779290773802  0.0482514681004255
 
  0.00000000E+00  0.00000000E+00  0.00000000E+00
  0.00000000E+00  0.00000000E+00  0.00000000E+00
  0.00000000E+00  0.00000000E+00  0.00000000E+00
  0.00000000E+00  0.00000000E+00  0.00000000E+00
  0.00000000E+00  0.00000000E+00  0.00000000E+00
  0.00000000E+00  0.00000000E+00  0.00000000E+00
  0.00000000E+00  0.00000000E+00  0.00000000E+00
  0.00000000E+00  0.00000000E+00  0.00000000E+00
  0.00000000E+00  0.00000000E+00  0.00000000E+00
  0.00000000E+00  0.00000000E+00  0.00000000E+00
  0.00000000E+00  0.00000000E+00  0.00000000E+00
  0.00000000E+00  0.00000000E+00  0.00000000E+00
  0.00000000E+00  0.00000000E+00  0.00000000E+00
  0.00000000E+00  0.00000000E+00  0.00000000E+00
  0.00000000E+00  0.00000000E+00  0.00000000E+00
  0.00000000E+00  0.00000000E+00  0.00000000E+00
  0.00000000E+00  0.00000000E+00  0.00000000E+00
  0.00000000E+00  0.00000000E+00  0.00000000E+00
  0.00000000E+00  0.00000000E+00  0.00000000E+00
  0.00000000E+00  0.00000000E+00  0.00000000E+00
  0.00000000E+00  0.00000000E+00  0.00000000E+00
  0.00000000E+00  0.00000000E+00  0.00000000E+00
  0.00000000E+00  0.00000000E+00  0.00000000E+00
  0.00000000E+00  0.00000000E+00  0.00000000E+00
  0.00000000E+00  0.00000000E+00  0.00000000E+00
  0.00000000E+00  0.00000000E+00  0.00000000E+00
  0.00000000E+00  0.00000000E+00  0.00000000E+00
  0.00000000E+00  0.00000000E+00  0.00000000E+00
  0.00000000E+00  0.00000000E+00  0.00000000E+00
  0.00000000E+00  0.00000000E+00  0.00000000E+00
  0.00000000E+00  0.00000000E+00  0.00000000E+00
  0.00000000E+00  0.00000000E+00  0.00000000E+00
  0.00000000E+00  0.00000000E+00  0.00000000E+00
  0.00000000E+00  0.00000000E+00  0.00000000E+00
  0.00000000E+00  0.00000000E+00  0.00000000E+00
  0.00000000E+00  0.00000000E+00  0.00000000E+00
  0.00000000E+00  0.00000000E+00  0.00000000E+00
  0.00000000E+00  0.00000000E+00  0.00000000E+00
  0.00000000E+00  0.00000000E+00  0.00000000E+00
  0.00000000E+00  0.00000000E+00  0.00000000E+00
  0.00000000E+00  0.00000000E+00  0.00000000E+00
  0.00000000E+00  0.00000000E+00  0.00000000E+00
  0.00000000E+00  0.00000000E+00  0.00000000E+00
  0.00000000E+00  0.00000000E+00  0.00000000E+00
  0.00000000E+00  0.00000000E+00  0.00000000E+00
  0.00000000E+00  0.00000000E+00  0.00000000E+00
  0.00000000E+00  0.00000000E+00  0.00000000E+00
  0.00000000E+00  0.00000000E+00  0.00000000E+00
  0.00000000E+00  0.00000000E+00  0.00000000E+00
  0.00000000E+00  0.00000000E+00  0.00000000E+00
  0.00000000E+00  0.00000000E+00  0.00000000E+00
  0.00000000E+00  0.00000000E+00  0.00000000E+00
