Li24 P4 S20 Cl4                         
   1.00000000000000     
     9.6487635206927429    0.0000000000000000    0.0000000000000000
     0.0000000000000000    9.6487635206927429    0.0000000000000000
     0.0000000000000000    0.0000000000000000    9.6487635206927429
   Li   P    S    Cl
    24     4    20     4
Direct
  0.9667562914698777  0.3161216159931968  0.3272776502217809
  0.9719349369453312  0.7051033508294822  0.7020474763142914
  0.9986349222713358  0.2913495132852830  0.7091532013470569
  0.0382154574857339  0.6685945164994394  0.3451401394192004
  0.3164402351255262  0.3203703105055666  0.9529984229431960
  0.1564898890457513  0.8023623020744282  0.0524789429702324
  0.8047621723523690  0.2062712120409103  0.0098109604338106
  0.7960496875740617  0.7820174727178184  0.9831559009300648
  0.3038972297432423  0.9765065115561953  0.2895429547463593
  0.1869609710320574  0.0385655250163666  0.8399900644227074
  0.8203542499299488  0.9761892249601942  0.7940804960396051
  0.8302925478340484  0.0163871342150301  0.2090609247771056
  0.3027675763530127  0.7945618799278620  0.4957099647530612
  0.3138085846624747  0.1825665911008016  0.5441247033608647
  0.6819986006313670  0.8069794191400561  0.5115107557139211
  0.6661138128856479  0.1789838596049691  0.4605809068506659
  0.2043135078280258  0.4752747841274143  0.6799577702022574
  0.2758854945517299  0.5146755525609805  0.2009279042590961
  0.7117748409226721  0.4722245992683156  0.1822863316212917
  0.7719107561084471  0.5232073155342363  0.6507698053346544
  0.5281151656489698  0.6410756549358538  0.8445666264021057
  0.4827014570472770  0.6991555346772600  0.2113823864473972
  0.5155468777739003  0.2800955721377960  0.2076809630650018
  0.5365151328597548  0.9212624163546366  0.7215095147709505
  0.4979436094746106  0.4845549227105295  0.5063019529462522
  0.5009636613815118  0.9925906050016025  0.0051721436118513
  0.9979932612851670  0.4968095122167284  0.9984886532754444
  0.0006529234538135  0.9977620898760051  0.5036970667370326
  0.1214962373558777  0.8887360030296989  0.6411333104730090
  0.1210459949183260  0.1191197575402754  0.3790712664870526
  0.8874748631347629  0.8599862962056477  0.3873153122821975
  0.8602305424672423  0.1215183334127019  0.6057342353712230
  0.8977171737669565  0.6242820847925472  0.1382852116279523
  0.8502403521481980  0.4043658794195863  0.8758772083910742
  0.1268727371856286  0.6181554964850591  0.8810237075915097
  0.1088260275805482  0.3554367408599646  0.1115198020352395
  0.6147445719892062  0.1090999669360713  0.8696369273195472
  0.6255281113035025  0.8819857006459415  0.1376590864553648
  0.3637241405971210  0.1201571465806879  0.1061758889734250
  0.3749885719620210  0.8558105625222581  0.8979187071317583
  0.6341850629251908  0.5989755861591988  0.3867192920356217
  0.5980818026961643  0.3505633874906096  0.6327356562892490
  0.3925707272810257  0.6210470982933174  0.6333520079215447
  0.3637336155668720  0.3726619285770738  0.3845003420899999
  0.7327999102104741  0.7532357487422701  0.7479093901309923
  0.7493991586442021  0.2421551493071235  0.2421239992480935
  0.2534881922023331  0.7441181448940952  0.2666708766959616
  0.2256220020105744  0.2515528504672062  0.7495531257530672
  0.9692802104650653  0.9843071209493246  0.9925330971633386
  0.9944850273880377  0.5022053606169266  0.5311674472748322
  0.4855822315175118  0.9855020723691226  0.4913150551619765
  0.4885327610054517  0.4946780548342957  0.0482591921783353
 
  0.00000000E+00  0.00000000E+00  0.00000000E+00
  0.00000000E+00  0.00000000E+00  0.00000000E+00
  0.00000000E+00  0.00000000E+00  0.00000000E+00
  0.00000000E+00  0.00000000E+00  0.00000000E+00
  0.00000000E+00  0.00000000E+00  0.00000000E+00
  0.00000000E+00  0.00000000E+00  0.00000000E+00
  0.00000000E+00  0.00000000E+00  0.00000000E+00
  0.00000000E+00  0.00000000E+00  0.00000000E+00
  0.00000000E+00  0.00000000E+00  0.00000000E+00
  0.00000000E+00  0.00000000E+00  0.00000000E+00
  0.00000000E+00  0.00000000E+00  0.00000000E+00
  0.00000000E+00  0.00000000E+00  0.00000000E+00
  0.00000000E+00  0.00000000E+00  0.00000000E+00
  0.00000000E+00  0.00000000E+00  0.00000000E+00
  0.00000000E+00  0.00000000E+00  0.00000000E+00
  0.00000000E+00  0.00000000E+00  0.00000000E+00
  0.00000000E+00  0.00000000E+00  0.00000000E+00
  0.00000000E+00  0.00000000E+00  0.00000000E+00
  0.00000000E+00  0.00000000E+00  0.00000000E+00
  0.00000000E+00  0.00000000E+00  0.00000000E+00
  0.00000000E+00  0.00000000E+00  0.00000000E+00
  0.00000000E+00  0.00000000E+00  0.00000000E+00
  0.00000000E+00  0.00000000E+00  0.00000000E+00
  0.00000000E+00  0.00000000E+00  0.00000000E+00
  0.00000000E+00  0.00000000E+00  0.00000000E+00
  0.00000000E+00  0.00000000E+00  0.00000000E+00
  0.00000000E+00  0.00000000E+00  0.00000000E+00
  0.00000000E+00  0.00000000E+00  0.00000000E+00
  0.00000000E+00  0.00000000E+00  0.00000000E+00
  0.00000000E+00  0.00000000E+00  0.00000000E+00
  0.00000000E+00  0.00000000E+00  0.00000000E+00
  0.00000000E+00  0.00000000E+00  0.00000000E+00
  0.00000000E+00  0.00000000E+00  0.00000000E+00
  0.00000000E+00  0.00000000E+00  0.00000000E+00
  0.00000000E+00  0.00000000E+00  0.00000000E+00
  0.00000000E+00  0.00000000E+00  0.00000000E+00
  0.00000000E+00  0.00000000E+00  0.00000000E+00
  0.00000000E+00  0.00000000E+00  0.00000000E+00
  0.00000000E+00  0.00000000E+00  0.00000000E+00
  0.00000000E+00  0.00000000E+00  0.00000000E+00
  0.00000000E+00  0.00000000E+00  0.00000000E+00
  0.00000000E+00  0.00000000E+00  0.00000000E+00
  0.00000000E+00  0.00000000E+00  0.00000000E+00
  0.00000000E+00  0.00000000E+00  0.00000000E+00
  0.00000000E+00  0.00000000E+00  0.00000000E+00
  0.00000000E+00  0.00000000E+00  0.00000000E+00
  0.00000000E+00  0.00000000E+00  0.00000000E+00
  0.00000000E+00  0.00000000E+00  0.00000000E+00
  0.00000000E+00  0.00000000E+00  0.00000000E+00
  0.00000000E+00  0.00000000E+00  0.00000000E+00
  0.00000000E+00  0.00000000E+00  0.00000000E+00
  0.00000000E+00  0.00000000E+00  0.00000000E+00
