Generated by IonExplorer 2.0
1.0
       10.2794980000        0.0000000000        0.0000000000
        0.0000000000       10.2794980000        0.0000000000
        0.0000000000        0.0000000000       10.2794980000
   Li    P    S   Cl
   31    4   20    4
Direct
    0.3865550000    0.7500000000    0.1365550000
    0.3403350000    0.2500000000    0.1365550000
    0.3403350000    0.7500000000    0.6365550000
    0.6134450000    0.2500000000    0.4096650000
    0.1134450000    0.2500000000    0.3634450000
    0.1134450000    0.7500000000    0.4096650000
    0.6134450000    0.0231100000    0.6365550000
    0.6134450000    0.9768900000    0.1365550000
    0.1134450000    0.0231100000    0.1365550000
    0.1134450000    0.9768900000    0.6365550000
    0.6134450000    0.7500000000    0.9096650000
    0.6134450000    0.2500000000    0.8634450000
    0.1134450000    0.7500000000    0.8634450000
    0.1134450000    0.2500000000    0.9096650000
    0.6134450000    0.5231100000    0.1365550000
    0.6134450000    0.4768900000    0.6365550000
    0.1134450000    0.5231100000    0.6365550000
    0.1134450000    0.4768900000    0.1365550000
    0.8865550000    0.2500000000    0.1365550000
    0.8865550000    0.7500000000    0.6365550000
    0.8403350000    0.2500000000    0.6365550000
    0.8403350000    0.7500000000    0.1365550000
    0.3784774700    0.2500238000    0.6365752900
    0.3690683700    0.3277790200    0.7142983500
    0.4500865400    0.5491877400    0.7109729900
    0.4900088000    0.6255082900    0.7585202700
    0.5555330900    0.6920398100    0.6933222700
    0.6134103400    0.7500130200    0.6254740600
    0.5708341800    0.7926300400    0.5809544700
    0.5356145200    0.8279178800    0.3810756600
    0.6138400560    0.7519566600    0.3708749313
    0.8634450000    0.5000000000    0.8865550000
    0.8634450000    0.0000000000    0.3865550000
    0.3634450000    0.5000000000    0.3865550000
    0.3634450000    0.0000000000    0.8865550000
    0.9789650000    0.6155200000    0.0020750000
    0.9789650000    0.3844800000    0.7710350000
    0.7479250000    0.6155200000    0.7710350000
    0.7479250000    0.3844800000    0.0020750000
    0.9789650000    0.1155200000    0.5020750000
    0.9789650000    0.8844800000    0.2710350000
    0.7479250000    0.1155200000    0.2710350000
    0.7479250000    0.8844800000    0.5020750000
    0.4789650000    0.6155200000    0.5020750000
    0.4789650000    0.3844800000    0.2710350000
    0.2479250000    0.6155200000    0.2710350000
    0.2479250000    0.3844800000    0.5020750000
    0.4789650000    0.1155200000    0.0020750000
    0.4789650000    0.8844800000    0.7710350000
    0.2479250000    0.1155200000    0.7710350000
    0.2479250000    0.8844800000    0.0020750000
    0.6134450000    0.2500000000    0.6365550000
    0.6134450000    0.7500000000    0.1365550000
    0.1134450000    0.2500000000    0.1365550000
    0.1134450000    0.7500000000    0.6365550000
    0.3634450000    0.0000000000    0.3865550000
    0.3634450000    0.5000000000    0.8865550000
    0.8634450000    0.0000000000    0.8865550000
    0.8634450000    0.5000000000    0.3865550000
