Li24 P4 S20 Cl4                         
   1.00000000000000     
     9.6645937420342634    0.0000000000000000    0.0000000000000000
     0.0000000000000000    9.6645937420342634    0.0000000000000000
     0.0000000000000000    0.0000000000000000    9.6645937420342634
   Li   P    S    Cl
    24     4    20     4
Direct
  0.9931395347426469  0.2256482143606082  0.1715294273017891
  0.9793383851039708  0.7246653488519228  0.6813828735869059
  0.0348803075797814  0.1882440319563987  0.7824878818924397
  0.0198205226822079  0.7046597254229302  0.3313577296244029
  0.2292768878888950  0.1895832268972553  0.9741526968724423
  0.1563838014472817  0.8192452759880395  0.0380798317116324
  0.7016522182650652  0.2941120450822836  0.0079619180985426
  0.7358300471005081  0.6963070027720623  0.9694117674304251
  0.2917617043143960  0.9814737540113310  0.2862095591178336
  0.3897483138295094  0.0443430368913475  0.7175588918564512
  0.8149265607217246  0.9728089636210571  0.8132439820546988
  0.8166604897048514  0.0200207156982706  0.1795201066767548
  0.3134696395888513  0.7926449243816005  0.4840553539056010
  0.2963486244380677  0.2154386729425032  0.5143819398674977
  0.6756191692693740  0.8442401656321127  0.5263200284040823
  0.8480654279308583  0.3168445565088989  0.4550073281827499
  0.1780734166208637  0.4656042321564894  0.6856007748777516
  0.2086886994056436  0.5153771597629269  0.3060767787680362
  0.7151655592051619  0.4838774236377116  0.2116442752470666
  0.7968524307770004  0.5240648346462031  0.6904332925233296
  0.4726648670158255  0.3501228718584565  0.8056498702002799
  0.4620208115570000  0.6824444525216324  0.1775236809711953
  0.5600194222319725  0.1810977302557891  0.3291692223181425
  0.5187258144228281  0.6960292681784676  0.8035954170949461
  0.5103892872649501  0.4992308755338546  0.4930468704970079
  0.5063839169358745  0.9961167281417704  0.0014485032796611
  0.0185353200928675  0.5056445762157008  0.9905262480092766
  0.0022176726473177  0.0107184296497405  0.4957544769255942
  0.1325754094538495  0.9024560336020061  0.6221589567074187
  0.1162680626347088  0.1387623089912890  0.3686819869775111
  0.8749140247927724  0.8869602886541538  0.3788210376283469
  0.8704867889159179  0.1259403212411343  0.6159966109207640
  0.9029015326878717  0.6235094502660588  0.1255395665154813
  0.8947903636965874  0.3804314105178916  0.8704396117690336
  0.1260386175913434  0.6365349678332988  0.8640919929941064
  0.1562792600184786  0.3891300161290314  0.1018945396125708
  0.6128389540347128  0.1149216582619024  0.8586561976004191
  0.6330519624242527  0.8712672366707460  0.1162878224311096
  0.4051074225590062  0.1309920188385931  0.1295899130873655
  0.3677039006423068  0.8746974479043704  0.8963616790193226
  0.6211235872937340  0.6390912737303227  0.3788332074290581
  0.6336156009731294  0.3668600038313597  0.6039634860772886
  0.3794219072534592  0.6031080642116536  0.6255447585451842
  0.3997705528810071  0.3776234936561612  0.3588672911976411
  0.7470163200568939  0.7532823918052866  0.7400073782906749
  0.7671775737951729  0.2522014986974563  0.2348421665234817
  0.2444902941272822  0.7496074030580707  0.2574889773476666
  0.2626625134782171  0.2493034027133824  0.7460697939377808
  0.0062855300960871  0.0313164598375009  0.9951476867219976
  0.0034416483052988  0.5191992301447000  0.5076793681465021
  0.4696671290595807  0.0002370498246800  0.4862977720139942
  0.5523059677432398  0.5127483597016277  0.9939125685085691
 
  0.00000000E+00  0.00000000E+00  0.00000000E+00
  0.00000000E+00  0.00000000E+00  0.00000000E+00
  0.00000000E+00  0.00000000E+00  0.00000000E+00
  0.00000000E+00  0.00000000E+00  0.00000000E+00
  0.00000000E+00  0.00000000E+00  0.00000000E+00
  0.00000000E+00  0.00000000E+00  0.00000000E+00
  0.00000000E+00  0.00000000E+00  0.00000000E+00
  0.00000000E+00  0.00000000E+00  0.00000000E+00
  0.00000000E+00  0.00000000E+00  0.00000000E+00
  0.00000000E+00  0.00000000E+00  0.00000000E+00
  0.00000000E+00  0.00000000E+00  0.00000000E+00
  0.00000000E+00  0.00000000E+00  0.00000000E+00
  0.00000000E+00  0.00000000E+00  0.00000000E+00
  0.00000000E+00  0.00000000E+00  0.00000000E+00
  0.00000000E+00  0.00000000E+00  0.00000000E+00
  0.00000000E+00  0.00000000E+00  0.00000000E+00
  0.00000000E+00  0.00000000E+00  0.00000000E+00
  0.00000000E+00  0.00000000E+00  0.00000000E+00
  0.00000000E+00  0.00000000E+00  0.00000000E+00
  0.00000000E+00  0.00000000E+00  0.00000000E+00
  0.00000000E+00  0.00000000E+00  0.00000000E+00
  0.00000000E+00  0.00000000E+00  0.00000000E+00
  0.00000000E+00  0.00000000E+00  0.00000000E+00
  0.00000000E+00  0.00000000E+00  0.00000000E+00
  0.00000000E+00  0.00000000E+00  0.00000000E+00
  0.00000000E+00  0.00000000E+00  0.00000000E+00
  0.00000000E+00  0.00000000E+00  0.00000000E+00
  0.00000000E+00  0.00000000E+00  0.00000000E+00
  0.00000000E+00  0.00000000E+00  0.00000000E+00
  0.00000000E+00  0.00000000E+00  0.00000000E+00
  0.00000000E+00  0.00000000E+00  0.00000000E+00
  0.00000000E+00  0.00000000E+00  0.00000000E+00
  0.00000000E+00  0.00000000E+00  0.00000000E+00
  0.00000000E+00  0.00000000E+00  0.00000000E+00
  0.00000000E+00  0.00000000E+00  0.00000000E+00
  0.00000000E+00  0.00000000E+00  0.00000000E+00
  0.00000000E+00  0.00000000E+00  0.00000000E+00
  0.00000000E+00  0.00000000E+00  0.00000000E+00
  0.00000000E+00  0.00000000E+00  0.00000000E+00
  0.00000000E+00  0.00000000E+00  0.00000000E+00
  0.00000000E+00  0.00000000E+00  0.00000000E+00
  0.00000000E+00  0.00000000E+00  0.00000000E+00
  0.00000000E+00  0.00000000E+00  0.00000000E+00
  0.00000000E+00  0.00000000E+00  0.00000000E+00
  0.00000000E+00  0.00000000E+00  0.00000000E+00
  0.00000000E+00  0.00000000E+00  0.00000000E+00
  0.00000000E+00  0.00000000E+00  0.00000000E+00
  0.00000000E+00  0.00000000E+00  0.00000000E+00
  0.00000000E+00  0.00000000E+00  0.00000000E+00
  0.00000000E+00  0.00000000E+00  0.00000000E+00
  0.00000000E+00  0.00000000E+00  0.00000000E+00
  0.00000000E+00  0.00000000E+00  0.00000000E+00
