Li24 P4 S20 Cl4                         
   1.00000000000000     
     9.6645937420342634    0.0000000000000000    0.0000000000000000
     0.0000000000000000    9.6645937420342634    0.0000000000000000
     0.0000000000000000    0.0000000000000000    9.6645937420342634
   Li   P    S    Cl
    24     4    20     4
Direct
  0.9931325321616242  0.2256421968288223  0.1715266936729449
  0.9793421665045798  0.7246619125911664  0.6813879269938639
  0.0348880454829157  0.1882328469648797  0.7824845655268078
  0.0198170162252396  0.7046549375710498  0.3313552386381531
  0.2292754370782788  0.1895876235712777  0.9741541756732559
  0.1563944414531733  0.8192538704679890  0.0380710616465123
  0.7016616827706841  0.2941178886210736  0.0079592324519808
  0.7358304816427932  0.6963140982882052  0.9694128466289058
  0.2917595342330586  0.9814710750094733  0.2862133753018981
  0.3898111390348973  0.0443723485054974  0.7175669233937612
  0.8149271333974255  0.9728127411173020  0.8132350167846312
  0.8166570723092050  0.0200174663619563  0.1795224674089582
  0.3134595366976356  0.7926449948108782  0.4840589473117873
  0.2963303822037631  0.2154274464479826  0.5143845679784604
  0.6756127275394377  0.8442229855713705  0.5263133103576862
  0.8480585462514156  0.3168491868478966  0.4550075806574227
  0.1780735429472671  0.4656043044231168  0.6856008707007675
  0.2086980703592829  0.5153803699101189  0.3060674153329686
  0.7151635213085399  0.4838744961722767  0.2116403864588676
  0.7968556515231384  0.5240652083632114  0.6904329049842275
  0.4726630904852271  0.3501450988824004  0.8056549945645912
  0.4620223093401847  0.6824487800600565  0.1775232359558032
  0.5600109018977832  0.1810905150219639  0.3291676611553882
  0.5187288060833524  0.6960342436346068  0.8035932041521932
  0.5103913276996579  0.4992298173299119  0.4930485998793799
  0.5063853659096722  0.9961138687526443  0.0014521446844853
  0.0185367083160415  0.5056462067055207  0.9905272302277979
  0.0022132326496518  0.0107133406558901  0.4957542380524984
  0.1325738159320622  0.9024576413421315  0.6221657293896641
  0.1162638546335799  0.1387583871535796  0.3686723114872734
  0.8749037918999534  0.8869529586979752  0.3788192460762119
  0.8704811669419144  0.1259478030844008  0.6159956610741446
  0.9028956413062517  0.6235100195164307  0.1255419647783782
  0.8947933688146534  0.3804239485296321  0.8704305966241108
  0.1260478079417311  0.6365352506402360  0.8640949367220685
  0.1562768603443914  0.3891242870322245  0.1019018387282671
  0.6128495449762852  0.1149333277132740  0.8586618386598204
  0.6330475649950316  0.8712670501078748  0.1162960458683244
  0.4051006717472490  0.1309913696920901  0.1295933161814133
  0.3677016539466962  0.8747025615499240  0.8963467064239481
  0.6211210087007686  0.6390840535868563  0.3788271738851705
  0.6336183335915138  0.3668547367920851  0.6039731148558474
  0.3794169100006783  0.6031132205975283  0.6255494798975931
  0.3997605323112694  0.3776120620225782  0.3588746308537978
  0.7470178404125392  0.7532849458288524  0.7400053308242462
  0.7671698008296275  0.2521978586726519  0.2348438519274225
  0.2444882697210318  0.7496073275914128  0.2574846581537926
  0.2626695665705370  0.2493049748005589  0.7460726070967638
  0.0062825627704584  0.0313160404854003  0.9951465351263593
  0.0034374965263595  0.5191994842047833  0.5076841429387926
  0.4696653810760552  0.0002278483815630  0.4862951822741550
  0.5523099278036412  0.5127530061874594  0.9939113808762627
 
  0.00000000E+00  0.00000000E+00  0.00000000E+00
  0.00000000E+00  0.00000000E+00  0.00000000E+00
  0.00000000E+00  0.00000000E+00  0.00000000E+00
  0.00000000E+00  0.00000000E+00  0.00000000E+00
  0.00000000E+00  0.00000000E+00  0.00000000E+00
  0.00000000E+00  0.00000000E+00  0.00000000E+00
  0.00000000E+00  0.00000000E+00  0.00000000E+00
  0.00000000E+00  0.00000000E+00  0.00000000E+00
  0.00000000E+00  0.00000000E+00  0.00000000E+00
  0.00000000E+00  0.00000000E+00  0.00000000E+00
  0.00000000E+00  0.00000000E+00  0.00000000E+00
  0.00000000E+00  0.00000000E+00  0.00000000E+00
  0.00000000E+00  0.00000000E+00  0.00000000E+00
  0.00000000E+00  0.00000000E+00  0.00000000E+00
  0.00000000E+00  0.00000000E+00  0.00000000E+00
  0.00000000E+00  0.00000000E+00  0.00000000E+00
  0.00000000E+00  0.00000000E+00  0.00000000E+00
  0.00000000E+00  0.00000000E+00  0.00000000E+00
  0.00000000E+00  0.00000000E+00  0.00000000E+00
  0.00000000E+00  0.00000000E+00  0.00000000E+00
  0.00000000E+00  0.00000000E+00  0.00000000E+00
  0.00000000E+00  0.00000000E+00  0.00000000E+00
  0.00000000E+00  0.00000000E+00  0.00000000E+00
  0.00000000E+00  0.00000000E+00  0.00000000E+00
  0.00000000E+00  0.00000000E+00  0.00000000E+00
  0.00000000E+00  0.00000000E+00  0.00000000E+00
  0.00000000E+00  0.00000000E+00  0.00000000E+00
  0.00000000E+00  0.00000000E+00  0.00000000E+00
  0.00000000E+00  0.00000000E+00  0.00000000E+00
  0.00000000E+00  0.00000000E+00  0.00000000E+00
  0.00000000E+00  0.00000000E+00  0.00000000E+00
  0.00000000E+00  0.00000000E+00  0.00000000E+00
  0.00000000E+00  0.00000000E+00  0.00000000E+00
  0.00000000E+00  0.00000000E+00  0.00000000E+00
  0.00000000E+00  0.00000000E+00  0.00000000E+00
  0.00000000E+00  0.00000000E+00  0.00000000E+00
  0.00000000E+00  0.00000000E+00  0.00000000E+00
  0.00000000E+00  0.00000000E+00  0.00000000E+00
  0.00000000E+00  0.00000000E+00  0.00000000E+00
  0.00000000E+00  0.00000000E+00  0.00000000E+00
  0.00000000E+00  0.00000000E+00  0.00000000E+00
  0.00000000E+00  0.00000000E+00  0.00000000E+00
  0.00000000E+00  0.00000000E+00  0.00000000E+00
  0.00000000E+00  0.00000000E+00  0.00000000E+00
  0.00000000E+00  0.00000000E+00  0.00000000E+00
  0.00000000E+00  0.00000000E+00  0.00000000E+00
  0.00000000E+00  0.00000000E+00  0.00000000E+00
  0.00000000E+00  0.00000000E+00  0.00000000E+00
  0.00000000E+00  0.00000000E+00  0.00000000E+00
  0.00000000E+00  0.00000000E+00  0.00000000E+00
  0.00000000E+00  0.00000000E+00  0.00000000E+00
  0.00000000E+00  0.00000000E+00  0.00000000E+00
