Li24 P4 S20 Cl4                         
   1.00000000000000     
     9.6955402463718983    0.0000000000000000    0.0000000000000000
     0.0000000000000000    9.6955402463718983    0.0000000000000000
     0.0000000000000000    0.0000000000000000    9.6955402463718983
   Li   P    S    Cl
    24     4    20     4
Direct
  0.9796174544796920  0.3033142988975754  0.3220185763927822
  0.9796174544796920  0.8220185763927680  0.8033142988975612
  0.0113654122410345  0.2382822850879396  0.7382822850879538
  0.2861888734958911  0.5767847809243200  0.0767847809243627
  0.1853554748240288  0.1859923393813336  0.9789100998820144
  0.0685534824873094  0.8503006338891577  0.1438267543431536
  0.8277504711067296  0.1694132982919464  0.0227446675263836
  0.7395551056886961  0.7020819282510413  0.9714379255114622
  0.3329145593464737  0.9763859842449633  0.2874567381628005
  0.2691630927974700  0.0202258593566861  0.7381725274595218
  0.6735776724735172  0.9653052469608732  0.7034194514007345
  0.7228674502974743  0.0095303997742982  0.2848473264817061
  0.3329145593464737  0.7874567381627792  0.4763859842449348
  0.2691630927974700  0.2381725274594862  0.5202258593566932
  0.7228674502974743  0.7848473264817415  0.5095303997742838
  0.6735776724735243  0.2034194514007488  0.4653052469608874
  0.1853554748240288  0.4789100998820497  0.6859923393813619
  0.0685534824872951  0.6438267543431748  0.3503006338891362
  0.7395551056886961  0.4714379255114623  0.2020819282510414
  0.8277504711067296  0.5227446675264333  0.6694132982919108
  0.4709824088731279  0.3209248116870645  0.8209248116871215
  0.4931509573252069  0.7030864606229460  0.2030864606229177
  0.5347727346043644  0.2941673228897496  0.1713667328216216
  0.5347727346043644  0.6713667328216216  0.7941673228897639
  0.5100115962530531  0.4859945977334565  0.4946042053353609
  0.5100115962530531  0.9946042053353609  0.9859945977334778
  0.0126145161787188  0.4976959055329421  0.9976959055329276
  0.0116856966536072  0.9857315659304140  0.4857315659304210
  0.1335823493951519  0.8650316198641130  0.6099829296539472
  0.1335823493951590  0.1099829296539330  0.3650316198640846
  0.9047166227111620  0.8562182173182648  0.3562182173182720
  0.8724296790182503  0.0984147148235771  0.5984147148235487
  0.9074909515952742  0.6293587230886056  0.1293587230886410
  0.8744481885307285  0.3843450695198806  0.8843450695198591
  0.1334239935471475  0.6243326110002342  0.8795073327862640
  0.1334239935471475  0.3795073327862427  0.1243326110001772
  0.6279559549885118  0.1299648412768764  0.8731942360090872
  0.6378035203770351  0.8762663598578724  0.1076486379308861
  0.3844775468801416  0.1177302836119558  0.1048809864083042
  0.3959712770370043  0.8646522649693033  0.8680942199173998
  0.6378035203770351  0.6076486379309216  0.3762663598578581
  0.6279559549885118  0.3731942360090942  0.6299648412768623
  0.3844775468801416  0.6048809864083255  0.6177302836119841
  0.3959712770370043  0.3680942199173926  0.3646522649692678
  0.7588768182590404  0.7430919919440153  0.7405540198435472
  0.7588768182590404  0.2405540198435472  0.2430919919440083
  0.2654817489065042  0.7495827730622067  0.2495827730621782
  0.2477076190065906  0.2537355416819924  0.7537355416819712
  0.0116260762728280  0.0103093441994244  0.9680214145804129
  0.0116260762728138  0.4680214145804059  0.5103093441994386
  0.5346369069032786  0.9763797375179615  0.4763797375179614
  0.5249443100290062  0.5135457770597764  0.0135457770597479
 
  0.00000000E+00  0.00000000E+00  0.00000000E+00
  0.00000000E+00  0.00000000E+00  0.00000000E+00
  0.00000000E+00  0.00000000E+00  0.00000000E+00
  0.00000000E+00  0.00000000E+00  0.00000000E+00
  0.00000000E+00  0.00000000E+00  0.00000000E+00
  0.00000000E+00  0.00000000E+00  0.00000000E+00
  0.00000000E+00  0.00000000E+00  0.00000000E+00
  0.00000000E+00  0.00000000E+00  0.00000000E+00
  0.00000000E+00  0.00000000E+00  0.00000000E+00
  0.00000000E+00  0.00000000E+00  0.00000000E+00
  0.00000000E+00  0.00000000E+00  0.00000000E+00
  0.00000000E+00  0.00000000E+00  0.00000000E+00
  0.00000000E+00  0.00000000E+00  0.00000000E+00
  0.00000000E+00  0.00000000E+00  0.00000000E+00
  0.00000000E+00  0.00000000E+00  0.00000000E+00
  0.00000000E+00  0.00000000E+00  0.00000000E+00
  0.00000000E+00  0.00000000E+00  0.00000000E+00
  0.00000000E+00  0.00000000E+00  0.00000000E+00
  0.00000000E+00  0.00000000E+00  0.00000000E+00
  0.00000000E+00  0.00000000E+00  0.00000000E+00
  0.00000000E+00  0.00000000E+00  0.00000000E+00
  0.00000000E+00  0.00000000E+00  0.00000000E+00
  0.00000000E+00  0.00000000E+00  0.00000000E+00
  0.00000000E+00  0.00000000E+00  0.00000000E+00
  0.00000000E+00  0.00000000E+00  0.00000000E+00
  0.00000000E+00  0.00000000E+00  0.00000000E+00
  0.00000000E+00  0.00000000E+00  0.00000000E+00
  0.00000000E+00  0.00000000E+00  0.00000000E+00
  0.00000000E+00  0.00000000E+00  0.00000000E+00
  0.00000000E+00  0.00000000E+00  0.00000000E+00
  0.00000000E+00  0.00000000E+00  0.00000000E+00
  0.00000000E+00  0.00000000E+00  0.00000000E+00
  0.00000000E+00  0.00000000E+00  0.00000000E+00
  0.00000000E+00  0.00000000E+00  0.00000000E+00
  0.00000000E+00  0.00000000E+00  0.00000000E+00
  0.00000000E+00  0.00000000E+00  0.00000000E+00
  0.00000000E+00  0.00000000E+00  0.00000000E+00
  0.00000000E+00  0.00000000E+00  0.00000000E+00
  0.00000000E+00  0.00000000E+00  0.00000000E+00
  0.00000000E+00  0.00000000E+00  0.00000000E+00
  0.00000000E+00  0.00000000E+00  0.00000000E+00
  0.00000000E+00  0.00000000E+00  0.00000000E+00
  0.00000000E+00  0.00000000E+00  0.00000000E+00
  0.00000000E+00  0.00000000E+00  0.00000000E+00
  0.00000000E+00  0.00000000E+00  0.00000000E+00
  0.00000000E+00  0.00000000E+00  0.00000000E+00
  0.00000000E+00  0.00000000E+00  0.00000000E+00
  0.00000000E+00  0.00000000E+00  0.00000000E+00
  0.00000000E+00  0.00000000E+00  0.00000000E+00
  0.00000000E+00  0.00000000E+00  0.00000000E+00
  0.00000000E+00  0.00000000E+00  0.00000000E+00
  0.00000000E+00  0.00000000E+00  0.00000000E+00
