Li24 P4 S20 Cl4                         
   1.00000000000000     
     9.6955402463718983    0.0000000000000000    0.0000000000000000
     0.0000000000000000    9.6955402463718983    0.0000000000000000
     0.0000000000000000    0.0000000000000000    9.6955402463718983
   Li   P    S    Cl
    24     4    20     4
Direct
  0.9796112129098304  0.3033102320948160  0.3220252893024735
  0.9796112129098304  0.8220252893024593  0.8033102320948018
  0.0113638631390600  0.2382892676603490  0.7382892676603632
  0.2861918014902400  0.5767848855766715  0.0767848855767141
  0.1853528857314615  0.1860107559795665  0.9789223755104572
  0.0685456443142982  0.8502953070965162  0.1438228750943864
  0.8277573047917386  0.1694159012626528  0.0227440497993072
  0.7395476326723553  0.7020749908664143  0.9714317718576098
  0.3329130641625255  0.9763842315789475  0.2874505872995528
  0.2691209754317683  0.0202344681496243  0.7382069554360697
  0.6735770472116585  0.9653026130697029  0.7034087245019691
  0.7228690852725705  0.0095222942166657  0.2848422634026235
  0.3329130641625255  0.7874505872995314  0.4763842315789191
  0.2691209754317683  0.2382069554360342  0.5202344681496314
  0.7228690852725705  0.7848422634026591  0.5095222942166515
  0.6735770472116656  0.2034087245019833  0.4653026130697171
  0.1853528857314615  0.4789223755104928  0.6860107559795949
  0.0685456443142840  0.6438228750944077  0.3502953070964949
  0.7395476326723553  0.4714317718576098  0.2020749908664143
  0.8277573047917386  0.5227440497993570  0.6694159012626173
  0.4709938664974160  0.3209099658896193  0.8209099658896761
  0.4931473246760660  0.7030886433896839  0.2030886433896555
  0.5347755534297249  0.2941598022406851  0.1713630864438471
  0.5347755534297249  0.6713630864438471  0.7941598022406993
  0.5100123946611177  0.4859887071720408  0.4946019663481565
  0.5100123946611177  0.9946019663481565  0.9859887071720621
  0.0126157773576523  0.4976997675523549  0.9976997675523407
  0.0117001924091298  0.9857316192624239  0.4857316192624310
  0.1335876208240947  0.8650340561064240  0.6099843465434915
  0.1335876208241018  0.1099843465434773  0.3650340561063956
  0.9047212293817068  0.8562185692092754  0.3562185692092825
  0.8724375832106830  0.0984177489520519  0.5984177489520235
  0.9074808193009929  0.6293603648987371  0.1293603648987727
  0.8744507419453882  0.3843471665659521  0.8843471665659308
  0.1334223456965304  0.6243436014381061  0.8795179523426242
  0.1334223456965304  0.3795179523426029  0.1243436014380492
  0.6279652399837019  0.1299597877423224  0.8731930465095559
  0.6378002266655898  0.8762613048098444  0.1076444811734731
  0.3844781194677438  0.1177278960702139  0.1048758966775480
  0.3959793453304528  0.8646580646453046  0.8680746095554426
  0.6378002266655898  0.6076444811735087  0.3762613048098302
  0.6279652399837019  0.3731930465095630  0.6299597877423082
  0.3844781194677438  0.6048758966775694  0.6177278960702424
  0.3959793453304528  0.3680746095554355  0.3646580646452691
  0.7588766176656705  0.7430911718505726  0.7405508275143120
  0.7588766176656705  0.2405508275143120  0.2430911718505655
  0.2654799432500212  0.7495823875847520  0.2495823875847236
  0.2477042622713057  0.2537444883251680  0.7537444883251467
  0.0116416011907958  0.0103203275790591  0.9680166745460994
  0.0116416011907816  0.4680166745460923  0.5103203275790733
  0.5346609292212889  0.9763672678677437  0.4763672678677437
  0.5249409847215105  0.5135509361368946  0.0135509361368662
 
  0.00000000E+00  0.00000000E+00  0.00000000E+00
  0.00000000E+00  0.00000000E+00  0.00000000E+00
  0.00000000E+00  0.00000000E+00  0.00000000E+00
  0.00000000E+00  0.00000000E+00  0.00000000E+00
  0.00000000E+00  0.00000000E+00  0.00000000E+00
  0.00000000E+00  0.00000000E+00  0.00000000E+00
  0.00000000E+00  0.00000000E+00  0.00000000E+00
  0.00000000E+00  0.00000000E+00  0.00000000E+00
  0.00000000E+00  0.00000000E+00  0.00000000E+00
  0.00000000E+00  0.00000000E+00  0.00000000E+00
  0.00000000E+00  0.00000000E+00  0.00000000E+00
  0.00000000E+00  0.00000000E+00  0.00000000E+00
  0.00000000E+00  0.00000000E+00  0.00000000E+00
  0.00000000E+00  0.00000000E+00  0.00000000E+00
  0.00000000E+00  0.00000000E+00  0.00000000E+00
  0.00000000E+00  0.00000000E+00  0.00000000E+00
  0.00000000E+00  0.00000000E+00  0.00000000E+00
  0.00000000E+00  0.00000000E+00  0.00000000E+00
  0.00000000E+00  0.00000000E+00  0.00000000E+00
  0.00000000E+00  0.00000000E+00  0.00000000E+00
  0.00000000E+00  0.00000000E+00  0.00000000E+00
  0.00000000E+00  0.00000000E+00  0.00000000E+00
  0.00000000E+00  0.00000000E+00  0.00000000E+00
  0.00000000E+00  0.00000000E+00  0.00000000E+00
  0.00000000E+00  0.00000000E+00  0.00000000E+00
  0.00000000E+00  0.00000000E+00  0.00000000E+00
  0.00000000E+00  0.00000000E+00  0.00000000E+00
  0.00000000E+00  0.00000000E+00  0.00000000E+00
  0.00000000E+00  0.00000000E+00  0.00000000E+00
  0.00000000E+00  0.00000000E+00  0.00000000E+00
  0.00000000E+00  0.00000000E+00  0.00000000E+00
  0.00000000E+00  0.00000000E+00  0.00000000E+00
  0.00000000E+00  0.00000000E+00  0.00000000E+00
  0.00000000E+00  0.00000000E+00  0.00000000E+00
  0.00000000E+00  0.00000000E+00  0.00000000E+00
  0.00000000E+00  0.00000000E+00  0.00000000E+00
  0.00000000E+00  0.00000000E+00  0.00000000E+00
  0.00000000E+00  0.00000000E+00  0.00000000E+00
  0.00000000E+00  0.00000000E+00  0.00000000E+00
  0.00000000E+00  0.00000000E+00  0.00000000E+00
  0.00000000E+00  0.00000000E+00  0.00000000E+00
  0.00000000E+00  0.00000000E+00  0.00000000E+00
  0.00000000E+00  0.00000000E+00  0.00000000E+00
  0.00000000E+00  0.00000000E+00  0.00000000E+00
  0.00000000E+00  0.00000000E+00  0.00000000E+00
  0.00000000E+00  0.00000000E+00  0.00000000E+00
  0.00000000E+00  0.00000000E+00  0.00000000E+00
  0.00000000E+00  0.00000000E+00  0.00000000E+00
  0.00000000E+00  0.00000000E+00  0.00000000E+00
  0.00000000E+00  0.00000000E+00  0.00000000E+00
  0.00000000E+00  0.00000000E+00  0.00000000E+00
  0.00000000E+00  0.00000000E+00  0.00000000E+00
