Generated by IonExplorer 2.0
1.0
       10.2794980000        0.0000000000        0.0000000000
        0.0000000000       10.2794980000        0.0000000000
        0.0000000000        0.0000000000       10.2794980000
   Li    P    S   Cl
   23    4   20    4
Direct
    0.7731100000    0.0000000000    0.0000000000
    0.7268900000    0.5000000000    0.0000000000
    0.7268900000    0.0000000000    0.5000000000
    0.0000000000    0.5000000000    0.2731100000
    0.0000000000    0.0000000000    0.2268900000
    0.5000000000    0.5000000000    0.2268900000
    0.5000000000    0.0000000000    0.2731100000
    0.0000000000    0.2731100000    0.5000000000
    0.0000000000    0.2268900000    0.0000000000
    0.5000000000    0.2731100000    0.0000000000
    0.5000000000    0.2268900000    0.5000000000
    0.0000000000    0.0000000000    0.7731100000
    0.0000000000    0.5000000000    0.7268900000
    0.5000000000    0.0000000000    0.7268900000
    0.5000000000    0.5000000000    0.7731100000
    0.0000000000    0.7731100000    0.0000000000
    0.0000000000    0.7268900000    0.5000000000
    0.5000000000    0.7731100000    0.5000000000
    0.5000000000    0.7268900000    0.0000000000
    0.2731100000    0.5000000000    0.0000000000
    0.2731100000    0.0000000000    0.5000000000
    0.2268900000    0.0000000000    0.0000000000
    0.2348243100    0.5000000000    0.5000000000
    0.2500000000    0.7500000000    0.7500000000
    0.2500000000    0.2500000000    0.2500000000
    0.7500000000    0.7500000000    0.2500000000
    0.7500000000    0.2500000000    0.7500000000
    0.3655200000    0.8655200000    0.8655200000
    0.3655200000    0.6344800000    0.6344800000
    0.1344800000    0.8655200000    0.6344800000
    0.1344800000    0.6344800000    0.8655200000
    0.3655200000    0.3655200000    0.3655200000
    0.3655200000    0.1344800000    0.1344800000
    0.1344800000    0.3655200000    0.1344800000
    0.1344800000    0.1344800000    0.3655200000
    0.8655200000    0.8655200000    0.3655200000
    0.8655200000    0.6344800000    0.1344800000
    0.6344800000    0.8655200000    0.1344800000
    0.6344800000    0.6344800000    0.3655200000
    0.8655200000    0.3655200000    0.8655200000
    0.8655200000    0.1344800000    0.6344800000
    0.6344800000    0.3655200000    0.6344800000
    0.6344800000    0.1344800000    0.8655200000
    0.0000000000    0.5000000000    0.5000000000
    0.0000000000    0.0000000000    0.0000000000
    0.5000000000    0.5000000000    0.0000000000
    0.5000000000    0.0000000000    0.5000000000
    0.7500000000    0.2500000000    0.2500000000
    0.7500000000    0.7500000000    0.7500000000
    0.2500000000    0.2500000000    0.7500000000
    0.2500000000    0.7500000000    0.2500000000
