Li24 P4 S20 Cl4                         
   1.00000000000000     
     9.6376174662927152    0.0000000000000000    0.0000000000000000
     0.0000000000000000    9.6376174662927152    0.0000000000000000
     0.0000000000000000    0.0000000000000000    9.6376174662927152
   Li   P    S    Cl
    24     4    20     4
Direct
  0.9861438372433050  0.3432140201188332  0.2830515680595822
  0.9635341415891883  0.6872446579486131  0.6633456161899101
  0.0312641973774369  0.3192312220588279  0.7102790934069801
  0.0236967395304260  0.8234266655804963  0.2101284562166174
  0.3517815726152791  0.2876445715800419  0.9603239081276013
  0.2136087021068631  0.8091999322575918  0.0058142977700744
  0.8398032251521487  0.1720248165144624  0.0414795870816309
  0.8235509876183532  0.7724810164945128  0.9801002684895231
  0.2997943841789971  0.9763150893762085  0.3296934671399826
  0.1617472796356720  0.0428810554191294  0.8057779651994823
  0.7967752778664866  0.9709304346037921  0.7923387853296094
  0.7209461476780491  0.0169993332181336  0.2963836988411503
  0.1927589374985223  0.6684523757414313  0.4524576909435383
  0.2149382714224530  0.2907510302919529  0.5070800549675807
  0.6659214523836133  0.8003322953355942  0.5414390529191542
  0.7997026655356829  0.3162115486819748  0.4845603416605366
  0.3065417705351998  0.4862955092524303  0.7721461319168657
  0.3210286445942526  0.5410073009615241  0.1612795663806675
  0.6887482686808875  0.4631845556973860  0.1610902938054922
  0.6980070408902811  0.5043077051068331  0.8005524277373028
  0.4681678334073892  0.1363898766592241  0.6823514856672255
  0.4873226871024160  0.7755561380637850  0.2876721449241824
  0.5307607550057029  0.2133045664274934  0.3134418933867688
  0.5190811296397297  0.7139382365926406  0.8242444452293808
  0.5071789481713838  0.5016201017723345  0.4931161210257377
  0.5098789417676610  0.0049469499885020  0.0018717450799904
  0.0159827114390561  0.4964919525732771  0.9971316945550074
  0.0030400990359400  0.0000000036104349  0.5003961864435853
  0.1370262189195877  0.8776974009914081  0.6115924819762801
  0.1064476715028193  0.1207953319839429  0.3586334049285172
  0.8754138814228153  0.8604757900846469  0.4009620289334519
  0.8891381154419911  0.1259489330715876  0.6292112427753286
  0.9030939038870882  0.6059061201363097  0.1417110059333462
  0.8795044980311140  0.3708119730725585  0.8917449591938881
  0.1189321884788225  0.6254409263502205  0.8621691024871975
  0.1508734594111947  0.3690323230138510  0.0995130000851270
  0.6329029951022179  0.1351671009564305  0.8874752668765079
  0.6312152606533404  0.8675584831633875  0.1111853366372963
  0.3863493060075806  0.1166527151067632  0.1327229833644875
  0.3820135442910806  0.9089222860488853  0.8584956231245594
  0.6479930236869651  0.6082399000558888  0.3749302457466574
  0.6033188919168033  0.3614022125777214  0.6207930925590083
  0.3955254839995919  0.6448228254349794  0.6057342345773983
  0.3765424679866501  0.3978353862338871  0.3600848805275734
  0.7479996238986422  0.7375330674144995  0.7574083281409448
  0.7607265815869239  0.2504589072845416  0.2555989053697074
  0.2545235408057872  0.7580700287224892  0.2366634252771649
  0.2594143358890126  0.2536846615110206  0.7385351038827379
  0.9905453486610550  0.9674096207008991  0.9895740458324368
  0.0168821607564652  0.4738736534860156  0.5079664983153920
  0.5166239034690772  0.9959276914003728  0.4618413105129036
  0.4944508844913595  0.5063473992696549  0.9742964344467059
 
  0.00000000E+00  0.00000000E+00  0.00000000E+00
  0.00000000E+00  0.00000000E+00  0.00000000E+00
  0.00000000E+00  0.00000000E+00  0.00000000E+00
  0.00000000E+00  0.00000000E+00  0.00000000E+00
  0.00000000E+00  0.00000000E+00  0.00000000E+00
  0.00000000E+00  0.00000000E+00  0.00000000E+00
  0.00000000E+00  0.00000000E+00  0.00000000E+00
  0.00000000E+00  0.00000000E+00  0.00000000E+00
  0.00000000E+00  0.00000000E+00  0.00000000E+00
  0.00000000E+00  0.00000000E+00  0.00000000E+00
  0.00000000E+00  0.00000000E+00  0.00000000E+00
  0.00000000E+00  0.00000000E+00  0.00000000E+00
  0.00000000E+00  0.00000000E+00  0.00000000E+00
  0.00000000E+00  0.00000000E+00  0.00000000E+00
  0.00000000E+00  0.00000000E+00  0.00000000E+00
  0.00000000E+00  0.00000000E+00  0.00000000E+00
  0.00000000E+00  0.00000000E+00  0.00000000E+00
  0.00000000E+00  0.00000000E+00  0.00000000E+00
  0.00000000E+00  0.00000000E+00  0.00000000E+00
  0.00000000E+00  0.00000000E+00  0.00000000E+00
  0.00000000E+00  0.00000000E+00  0.00000000E+00
  0.00000000E+00  0.00000000E+00  0.00000000E+00
  0.00000000E+00  0.00000000E+00  0.00000000E+00
  0.00000000E+00  0.00000000E+00  0.00000000E+00
  0.00000000E+00  0.00000000E+00  0.00000000E+00
  0.00000000E+00  0.00000000E+00  0.00000000E+00
  0.00000000E+00  0.00000000E+00  0.00000000E+00
  0.00000000E+00  0.00000000E+00  0.00000000E+00
  0.00000000E+00  0.00000000E+00  0.00000000E+00
  0.00000000E+00  0.00000000E+00  0.00000000E+00
  0.00000000E+00  0.00000000E+00  0.00000000E+00
  0.00000000E+00  0.00000000E+00  0.00000000E+00
  0.00000000E+00  0.00000000E+00  0.00000000E+00
  0.00000000E+00  0.00000000E+00  0.00000000E+00
  0.00000000E+00  0.00000000E+00  0.00000000E+00
  0.00000000E+00  0.00000000E+00  0.00000000E+00
  0.00000000E+00  0.00000000E+00  0.00000000E+00
  0.00000000E+00  0.00000000E+00  0.00000000E+00
  0.00000000E+00  0.00000000E+00  0.00000000E+00
  0.00000000E+00  0.00000000E+00  0.00000000E+00
  0.00000000E+00  0.00000000E+00  0.00000000E+00
  0.00000000E+00  0.00000000E+00  0.00000000E+00
  0.00000000E+00  0.00000000E+00  0.00000000E+00
  0.00000000E+00  0.00000000E+00  0.00000000E+00
  0.00000000E+00  0.00000000E+00  0.00000000E+00
  0.00000000E+00  0.00000000E+00  0.00000000E+00
  0.00000000E+00  0.00000000E+00  0.00000000E+00
  0.00000000E+00  0.00000000E+00  0.00000000E+00
  0.00000000E+00  0.00000000E+00  0.00000000E+00
  0.00000000E+00  0.00000000E+00  0.00000000E+00
  0.00000000E+00  0.00000000E+00  0.00000000E+00
  0.00000000E+00  0.00000000E+00  0.00000000E+00
