Li24 P4 S20 Cl4                         
   1.00000000000000     
     9.6376174662927152    0.0000000000000000    0.0000000000000000
     0.0000000000000000    9.6376174662927152    0.0000000000000000
     0.0000000000000000    0.0000000000000000    9.6376174662927152
   Li   P    S    Cl
    24     4    20     4
Direct
  0.9861521943656584  0.3431837690106363  0.2830610969221894
  0.9635332325401222  0.6872325942577220  0.6633593872360919
  0.0312611466337387  0.3192220828664318  0.7102789573854267
  0.0236957989570215  0.8234213233770475  0.2101216350044268
  0.3517623242991874  0.2876525830907042  0.9603290924732164
  0.2136135719762038  0.8091935922687838  0.0058155762812007
  0.8397972555123232  0.1720246708012070  0.0414759858996661
  0.8235434308083356  0.7724836518333262  0.9800987976109425
  0.2998038097273295  0.9763221282062631  0.3296712783192461
  0.1617539960909156  0.0428760860239166  0.8057824436445244
  0.7967824876285832  0.9709266461049211  0.7923358623408134
  0.7209472231671867  0.0170026911814318  0.2963822898256510
  0.1927524830121712  0.6684638535257932  0.4524617773692228
  0.2149417713317590  0.2907586438578491  0.5070856777752013
  0.6659346591912012  0.8003396459698777  0.5414329968622411
  0.7997001404912396  0.3162143729558338  0.4845596075746528
  0.3065395884187083  0.4862933697987799  0.7721440034797666
  0.3210268697693053  0.5410076090090783  0.1612866412621017
  0.6887489145740489  0.4631874037467583  0.1610987646206894
  0.6980050149944574  0.5043084565432636  0.8005629289233198
  0.4681714011480409  0.1364027874275067  0.6823477246944591
  0.4873228979920299  0.7755567202467262  0.2876694353178237
  0.5307644001643936  0.2133047397213090  0.3134386596975531
  0.5190757271290849  0.7139369427232651  0.8242318886017159
  0.5071776562888815  0.5016170617583242  0.4931194260248546
  0.5098868201616611  0.0049525076741546  0.0018589244246670
  0.0159818108038792  0.4964885178256324  0.9971342271668462
  0.0030389483912359  0.0000015119854666  0.5004002967879373
  0.1370146475756187  0.8776901660121084  0.6116043187689044
  0.1064613737106015  0.1207943642104681  0.3586433059777860
  0.8754157959937672  0.8604782934851301  0.4009522480651313
  0.8891313363080826  0.1259478821656899  0.6292059911651720
  0.9030869834674604  0.6059109091431480  0.1417077577692822
  0.8795057223869946  0.3708105437209639  0.8917444448346643
  0.1189357652517060  0.6254398934075169  0.8621711912777741
  0.1508692888743965  0.3690363191388428  0.0995225051631650
  0.6329059551509602  0.1351597995074272  0.8874683301514423
  0.6312181093353502  0.8675604610568328  0.1111872501403752
  0.3863539198797739  0.1166623718834927  0.1327186740529953
  0.3820135635430546  0.9089197824789323  0.8584962469342514
  0.6479935656586591  0.6082459799429571  0.3749302516744208
  0.6033210621751550  0.3614083572919142  0.6207967333110176
  0.3955175747825095  0.6448227065555656  0.6057333523782376
  0.3765465615364434  0.3978323768287595  0.3600850232674802
  0.7479958417996500  0.7375317689738310  0.7574061629642728
  0.7607289067065679  0.2504597471607966  0.2555980162324829
  0.2545230559545715  0.7580716030429571  0.2366657376324994
  0.2594122753563326  0.2536826262453786  0.7385386176458582
  0.9905422858913795  0.9674082182424542  0.9895719821518796
  0.0168848018020427  0.4738654658921675  0.5079677919717298
  0.5166264767479873  0.9959305443396076  0.4618337808499646
  0.4944434945425940  0.5063515554804709  0.9742958320925439
 
  0.00000000E+00  0.00000000E+00  0.00000000E+00
  0.00000000E+00  0.00000000E+00  0.00000000E+00
  0.00000000E+00  0.00000000E+00  0.00000000E+00
  0.00000000E+00  0.00000000E+00  0.00000000E+00
  0.00000000E+00  0.00000000E+00  0.00000000E+00
  0.00000000E+00  0.00000000E+00  0.00000000E+00
  0.00000000E+00  0.00000000E+00  0.00000000E+00
  0.00000000E+00  0.00000000E+00  0.00000000E+00
  0.00000000E+00  0.00000000E+00  0.00000000E+00
  0.00000000E+00  0.00000000E+00  0.00000000E+00
  0.00000000E+00  0.00000000E+00  0.00000000E+00
  0.00000000E+00  0.00000000E+00  0.00000000E+00
  0.00000000E+00  0.00000000E+00  0.00000000E+00
  0.00000000E+00  0.00000000E+00  0.00000000E+00
  0.00000000E+00  0.00000000E+00  0.00000000E+00
  0.00000000E+00  0.00000000E+00  0.00000000E+00
  0.00000000E+00  0.00000000E+00  0.00000000E+00
  0.00000000E+00  0.00000000E+00  0.00000000E+00
  0.00000000E+00  0.00000000E+00  0.00000000E+00
  0.00000000E+00  0.00000000E+00  0.00000000E+00
  0.00000000E+00  0.00000000E+00  0.00000000E+00
  0.00000000E+00  0.00000000E+00  0.00000000E+00
  0.00000000E+00  0.00000000E+00  0.00000000E+00
  0.00000000E+00  0.00000000E+00  0.00000000E+00
  0.00000000E+00  0.00000000E+00  0.00000000E+00
  0.00000000E+00  0.00000000E+00  0.00000000E+00
  0.00000000E+00  0.00000000E+00  0.00000000E+00
  0.00000000E+00  0.00000000E+00  0.00000000E+00
  0.00000000E+00  0.00000000E+00  0.00000000E+00
  0.00000000E+00  0.00000000E+00  0.00000000E+00
  0.00000000E+00  0.00000000E+00  0.00000000E+00
  0.00000000E+00  0.00000000E+00  0.00000000E+00
  0.00000000E+00  0.00000000E+00  0.00000000E+00
  0.00000000E+00  0.00000000E+00  0.00000000E+00
  0.00000000E+00  0.00000000E+00  0.00000000E+00
  0.00000000E+00  0.00000000E+00  0.00000000E+00
  0.00000000E+00  0.00000000E+00  0.00000000E+00
  0.00000000E+00  0.00000000E+00  0.00000000E+00
  0.00000000E+00  0.00000000E+00  0.00000000E+00
  0.00000000E+00  0.00000000E+00  0.00000000E+00
  0.00000000E+00  0.00000000E+00  0.00000000E+00
  0.00000000E+00  0.00000000E+00  0.00000000E+00
  0.00000000E+00  0.00000000E+00  0.00000000E+00
  0.00000000E+00  0.00000000E+00  0.00000000E+00
  0.00000000E+00  0.00000000E+00  0.00000000E+00
  0.00000000E+00  0.00000000E+00  0.00000000E+00
  0.00000000E+00  0.00000000E+00  0.00000000E+00
  0.00000000E+00  0.00000000E+00  0.00000000E+00
  0.00000000E+00  0.00000000E+00  0.00000000E+00
  0.00000000E+00  0.00000000E+00  0.00000000E+00
  0.00000000E+00  0.00000000E+00  0.00000000E+00
  0.00000000E+00  0.00000000E+00  0.00000000E+00
