Generated by IonExplorer 2.0
1.0
       10.2794980000        0.0000000000        0.0000000000
        0.0000000000       10.2794980000        0.0000000000
        0.0000000000        0.0000000000       10.2794980000
   Li    P    S   Cl
   23    4   20    4
Direct
    0.6365550000    0.0000000000    0.1365550000
    0.5903350000    0.5000000000    0.1365550000
    0.5903350000    0.0000000000    0.6365550000
    0.8634450000    0.5000000000    0.4096650000
    0.8634450000    0.0000000000    0.3634450000
    0.3634450000    0.0000000000    0.4096650000
    0.8634450000    0.2731100000    0.6365550000
    0.8634450000    0.2268900000    0.1365550000
    0.3634450000    0.2731100000    0.1365550000
    0.3634450000    0.2268900000    0.6365550000
    0.8634450000    0.0000000000    0.9096650000
    0.8634450000    0.5000000000    0.8634450000
    0.3634450000    0.0000000000    0.8634450000
    0.3634450000    0.5000000000    0.9096650000
    0.8634450000    0.7731100000    0.1365550000
    0.8634450000    0.7268900000    0.6365550000
    0.3634450000    0.7731100000    0.6365550000
    0.3634450000    0.7268900000    0.1365550000
    0.1365550000    0.5000000000    0.1365550000
    0.1365550000    0.0000000000    0.6365550000
    0.0903350000    0.5000000000    0.6365550000
    0.0903350000    0.0000000000    0.1365550000
    0.3656082421    0.4986353671    0.3721955779
    0.1134450000    0.7500000000    0.8865550000
    0.1134450000    0.2500000000    0.3865550000
    0.6134450000    0.7500000000    0.3865550000
    0.6134450000    0.2500000000    0.8865550000
    0.2289650000    0.8655200000    0.0020750000
    0.2289650000    0.6344800000    0.7710350000
    0.9979250000    0.8655200000    0.7710350000
    0.9979250000    0.6344800000    0.0020750000
    0.2289650000    0.3655200000    0.5020750000
    0.2289650000    0.1344800000    0.2710350000
    0.9979250000    0.3655200000    0.2710350000
    0.9979250000    0.1344800000    0.5020750000
    0.7289650000    0.8655200000    0.5020750000
    0.7289650000    0.6344800000    0.2710350000
    0.4979250000    0.8655200000    0.2710350000
    0.4979250000    0.6344800000    0.5020750000
    0.7289650000    0.3655200000    0.0020750000
    0.7289650000    0.1344800000    0.7710350000
    0.4979250000    0.3655200000    0.7710350000
    0.4979250000    0.1344800000    0.0020750000
    0.8634450000    0.5000000000    0.6365550000
    0.8634450000    0.0000000000    0.1365550000
    0.3634450000    0.5000000000    0.1365550000
    0.3634450000    0.0000000000    0.6365550000
    0.6134450000    0.2500000000    0.3865550000
    0.6134450000    0.7500000000    0.8865550000
    0.1134450000    0.2500000000    0.8865550000
    0.1134450000    0.7500000000    0.3865550000
