Li24 P4 S20 Cl4
   1.0000000000000000
     9.6601285933999996   0.0000000000000000   0.0000000000000000
     0.0000000000000000   9.6601285933999996   0.0000000000000000
     0.0000000000000000   0.0000000000000000   9.6601285933999996
   Li  P  S  Cl
   24  4  20  4
Direct
    0.1169620036000000   0.8416239985999999  -0.0058979984000000
    0.3070900140000000   0.0168000014000000   0.6157460156000000
    0.0280000010000000   0.3842540144000000   0.6157460156000000
    0.9872939828000000   0.7024279832000000   0.7024279832000000
    0.9193419930000000   0.3227780042000000   0.2666940048000001
    0.6964940074000000   0.6560780170000000   0.9354340078000000
    0.7108299729999999   0.4912500080000000   0.2108300030000000
    0.7600340128000000   0.8794359859999999   0.5886359928000000
    0.7294560198000000   0.1736379954000000   0.4157579986000000
    0.3651000024000000   0.7975720168000000   0.4987060068000000
    0.3070900140000000   0.1157459976000000   0.5167999982000000
    0.8070899840000000   0.0280000010000000   0.1929100010000000
    0.8263619776000001   0.9715759990000000   0.8263619776000001
    0.2742640018000000   0.9315819864000000   0.1300819992000000
    0.5166939972000000   0.3794360160000000   0.1880919996000000
    0.4193419990000000   0.3227780042000000   0.7666939850000001
    0.8878379878000000   0.5241500018000000   0.6121620122000000
    0.1772219958000000   0.5210740032000000   0.4071099994000000
    0.2743700028000000   0.4267640052000000   0.6348999796000000
    0.5167999982000000   0.8842539873999999   0.6929100160000000
    0.4113640012000000   0.8119079824000000   0.2513780112000000
    0.1157459976000000   0.1157459976000000   0.9720000030000000
    0.6975720228000001   0.2349000036000000   0.0012939996000000
    0.4311800000000000   0.6012920204000000   0.1171179996000000
    0.5032431600000000   0.5059455034000000   0.4990225314000000
    0.5061315060000000   0.9953079796000001   0.0041301980000000
    0.0066825980000000   0.4973780986000000   0.0017384160000000
    0.0042728620000000   0.0015099940000000   0.5059664192000000
    0.1256112608000000   0.8927793864000000   0.6428022982000000
    0.1238001706000000   0.1354628000000000   0.3918548286000000
    0.9064634558000000   0.8660864116000000   0.3798151252000000
    0.8664137484000000   0.1148680242000000   0.6195720196000000
    0.8890912773999999   0.6240745664000000   0.1249521670000000
    0.8891660092000000   0.3788913014000000   0.8705799343999999
    0.1330458584000000   0.6258040426000000   0.8876587868000000
    0.1244406786000000   0.3761256990000000   0.1286949498000000
    0.6213852044000000   0.1125418368000000   0.8692449096000000
    0.6365527752000000   0.8759807827999999   0.1217374172000000
    0.3833571492000000   0.1223559440000000   0.1219881462000000
    0.3787945746000000   0.8640130995999999   0.8962360974000000
    0.6321146010000001   0.6307199122000000   0.3867534042000000
    0.6158213856000000   0.3677633462000000   0.6143378495999999
    0.3868033350000000   0.6278399588000000   0.6283314106000000
    0.3763727250000000   0.3946738482000000   0.3706042226000000
    0.7608989952000000   0.7449388746000000   0.7483719590000001
    0.7480810997999999   0.2476510998000000   0.2493963836000000
    0.2550401626000000   0.7573614718000000   0.2480066834000000
    0.2609037820000000   0.2529187380000000   0.7521991367999999
    0.9905161382000000   0.0143657162000000   0.0172132210000000
    0.0207672162000000   0.4940187632000000   0.5254365860000001
    0.4885026814000000   0.9816399578000000   0.5116250811999999
    0.5339598062000001   0.4925098780000000   0.0146036312000000