Li24 P4 S20 Cl4                         
   1.00000000000000     
    10.0227252407460110    0.0000000000000000    0.0000000000000000
     0.0000000000000000   10.0227252407460110    0.0000000000000000
     0.0000000000000000    0.0000000000000000   10.0227252407460110
   Li   P    S    Cl
    24     4    20     4
Direct
  0.9766910944831951  0.2507778881595206  0.2509649943133038
  0.9767225626628674  0.7485549544121445  0.7489706599146027
  0.0232030608789087  0.2497406617014800  0.7503815572748987
  0.0230893242108684  0.7507523403773890  0.2494918374210641
  0.2509649943133038  0.2507778881595206  0.9766910944831951
  0.2494918374210641  0.7507523403773890  0.0230893242108684
  0.7503815572748987  0.2497406617014800  0.0232030608789087
  0.7489706599146027  0.7485549544121445  0.9767225626628674
  0.2491065579604855  0.9769620355956814  0.2491065579604855
  0.2501132655535820  0.0231521947612054  0.7502938362451091
  0.7511194242638642  0.9765235785426869  0.7511194242638642
  0.7502938362451091  0.0231521947612054  0.2501132655535820
  0.2501017509538406  0.7505461072297437  0.4766595793234450
  0.2499223728792109  0.2501988013532001  0.5231620795522978
  0.7497680921920262  0.7500507997037545  0.5231427300587461
  0.7493208388943571  0.2493555977479845  0.4767486684780751
  0.2503514922444461  0.4767869673696774  0.7502155862218196
  0.2499355454569201  0.5234141684600255  0.2499355454569201
  0.7502155862218196  0.4767869673696774  0.2503514922444461
  0.7499585776378574  0.5229169332919675  0.7499585776378574
  0.4767486684780751  0.2493555977479845  0.7493208388943571
  0.4766595793234450  0.7505461072297437  0.2501017509538406
  0.5231620795522978  0.2501988013532001  0.2499223728792109
  0.5231427300587461  0.7500507997037545  0.7497680921920262
  0.4999193588293104  0.5001080681665813  0.4999193588293104
  0.5002670795187203  0.0000639433579118  0.0000746069869400
  0.0001659178795944  0.4999629400708112  0.0001659178795944
  0.0000746069869400  0.0000639433579118  0.5002670795187203
  0.1181318976366524  0.8819528358803659  0.6184639444495159
  0.1181578896436437  0.1181450087445129  0.3820706420010432
  0.8820004978545279  0.8819024943516923  0.3821987027643861
  0.8818653155208749  0.1181986194093727  0.6182729334336723
  0.8820492720070967  0.6180510448116689  0.1183008455819477
  0.8820385757810274  0.3819180219859471  0.8820385757810274
  0.1183008455819477  0.6180510448116689  0.8820492720070967
  0.1182522265428282  0.3817349338132562  0.1182522265428282
  0.6182729334336723  0.1181986194093727  0.8818653155208749
  0.6184639444495159  0.8819528358803659  0.1181318976366524
  0.3820706420010432  0.1181450087445129  0.1181578896436437
  0.3821987027643861  0.8819024943516923  0.8820004978545279
  0.6179416149305343  0.6182461100109532  0.3817255682003318
  0.6179939129970324  0.3819222167565923  0.6179939129970324
  0.3817255682003318  0.6182461100109532  0.6179416149305343
  0.3817927772315495  0.3820301810596664  0.3817927772315495
  0.7499259113069372  0.7497260055300786  0.7499259113069372
  0.7499194228567908  0.2499693880226152  0.2499623224191298
  0.2498726257538096  0.7501736833519502  0.2498726257538096
  0.2499623224191298  0.2499693880226152  0.7499194228567908
  0.9999978500608457  0.9995621864867629  0.9999978500608457
  0.9992658539734801  0.4999851066845192  0.4999558927419851
  0.4999810520200026  0.0001833187085722  0.4999810520200026
  0.4999558927419851  0.4999851066845192  0.9992658539734801
 
  0.00000000E+00  0.00000000E+00  0.00000000E+00
  0.00000000E+00  0.00000000E+00  0.00000000E+00
  0.00000000E+00  0.00000000E+00  0.00000000E+00
  0.00000000E+00  0.00000000E+00  0.00000000E+00
  0.00000000E+00  0.00000000E+00  0.00000000E+00
  0.00000000E+00  0.00000000E+00  0.00000000E+00
  0.00000000E+00  0.00000000E+00  0.00000000E+00
  0.00000000E+00  0.00000000E+00  0.00000000E+00
  0.00000000E+00  0.00000000E+00  0.00000000E+00
  0.00000000E+00  0.00000000E+00  0.00000000E+00
  0.00000000E+00  0.00000000E+00  0.00000000E+00
  0.00000000E+00  0.00000000E+00  0.00000000E+00
  0.00000000E+00  0.00000000E+00  0.00000000E+00
  0.00000000E+00  0.00000000E+00  0.00000000E+00
  0.00000000E+00  0.00000000E+00  0.00000000E+00
  0.00000000E+00  0.00000000E+00  0.00000000E+00
  0.00000000E+00  0.00000000E+00  0.00000000E+00
  0.00000000E+00  0.00000000E+00  0.00000000E+00
  0.00000000E+00  0.00000000E+00  0.00000000E+00
  0.00000000E+00  0.00000000E+00  0.00000000E+00
  0.00000000E+00  0.00000000E+00  0.00000000E+00
  0.00000000E+00  0.00000000E+00  0.00000000E+00
  0.00000000E+00  0.00000000E+00  0.00000000E+00
  0.00000000E+00  0.00000000E+00  0.00000000E+00
  0.00000000E+00  0.00000000E+00  0.00000000E+00
  0.00000000E+00  0.00000000E+00  0.00000000E+00
  0.00000000E+00  0.00000000E+00  0.00000000E+00
  0.00000000E+00  0.00000000E+00  0.00000000E+00
  0.00000000E+00  0.00000000E+00  0.00000000E+00
  0.00000000E+00  0.00000000E+00  0.00000000E+00
  0.00000000E+00  0.00000000E+00  0.00000000E+00
  0.00000000E+00  0.00000000E+00  0.00000000E+00
  0.00000000E+00  0.00000000E+00  0.00000000E+00
  0.00000000E+00  0.00000000E+00  0.00000000E+00
  0.00000000E+00  0.00000000E+00  0.00000000E+00
  0.00000000E+00  0.00000000E+00  0.00000000E+00
  0.00000000E+00  0.00000000E+00  0.00000000E+00
  0.00000000E+00  0.00000000E+00  0.00000000E+00
  0.00000000E+00  0.00000000E+00  0.00000000E+00
  0.00000000E+00  0.00000000E+00  0.00000000E+00
  0.00000000E+00  0.00000000E+00  0.00000000E+00
  0.00000000E+00  0.00000000E+00  0.00000000E+00
  0.00000000E+00  0.00000000E+00  0.00000000E+00
  0.00000000E+00  0.00000000E+00  0.00000000E+00
  0.00000000E+00  0.00000000E+00  0.00000000E+00
  0.00000000E+00  0.00000000E+00  0.00000000E+00
  0.00000000E+00  0.00000000E+00  0.00000000E+00
  0.00000000E+00  0.00000000E+00  0.00000000E+00
  0.00000000E+00  0.00000000E+00  0.00000000E+00
  0.00000000E+00  0.00000000E+00  0.00000000E+00
  0.00000000E+00  0.00000000E+00  0.00000000E+00
  0.00000000E+00  0.00000000E+00  0.00000000E+00
