Li24 P4 S20 Cl4
1.0
  10.0227252407460110    0.0000000000000000    0.0000000000000000
   0.0000000000000000   10.0227252407460110    0.0000000000000000
   0.0000000000000000    0.0000000000000000   10.0227252407460110
Li P S Cl
24 4 20 4
direct
  0.9766441643668218  0.2507483711450047  0.2509205051483571
  0.9766910200253424  0.7485838838289641  0.7489955923955358
  0.0231696933884969  0.2497132552265055  0.7503459439243272
  0.0230519654141212  0.7507119035729379  0.2494837465019068
  0.2509205051483572  0.2507483711450047  0.9766441643668217
  0.2494837465019069  0.7507119035729379  0.0230519654141211
  0.7503459439243272  0.2497132552265055  0.0231696933884968
  0.7489955923955359  0.7485838838289641  0.9766910200253422
  0.2491169583430587  0.9769224881362922  0.2491169583430586
  0.2500834449931003  0.0231117194914874  0.7502606531875902
  0.7510668310157588  0.9764957468170946  0.7510668310157588
  0.7502606531875902  0.0231117194914874  0.2500834449931001
  0.2500920876497375  0.7505215534597349  0.4766354382318846
  0.2498782880560233  0.2501751911961737  0.5231318223301884
  0.7497448695127196  0.7500346499047238  0.5231104428905278
  0.7493068990370215  0.2493541417750386  0.4767083034557348
  0.2503239969522022  0.4767860996539679  0.7501890608624902
  0.2499108019324570  0.5234018039086943  0.2499108019324569
  0.7501890608624902  0.4767860996539679  0.2503239969522023
  0.7499303405562149  0.5229030222859181  0.7499303405562149
  0.4767083034557349  0.2493541417750386  0.7493068990370215
  0.4766354382318847  0.7505215534597349  0.2500920876497374
  0.5231318223301885  0.2501751911961737  0.2498782880560232
  0.5231104428905278  0.7500346499047238  0.7497448695127196
  0.4999288822336063  0.5001073785874168  0.4999288822336062
  0.5003966251264029  0.0001142989558866  0.0001772110147729
  0.0002686086875034  0.4999592601262677  0.0002686086875033
  0.0001772110147730  0.0001142989558866  0.5003966251264028
  0.1181745559984678  0.8818944174629766  0.6185126094277344
  0.1181817388625958  0.1181905264648651  0.3820301853935258
  0.8821130704987704  0.8820046581817799  0.3823068888366532
  0.8818252010470640  0.1182367667368982  0.6182941897618699
  0.8820236746695173  0.6180809556878124  0.1183194511072838
  0.8821410801510650  0.3820021475706886  0.8821410801510647
  0.1183194511072839  0.6180809556878124  0.8820236746695173
  0.1183091127020126  0.3816716688250131  0.1183091127020125
  0.6182941897618700  0.1182367667368982  0.8818252010470639
  0.6185126094277344  0.8818944174629766  0.1181745559984677
  0.3820301853935260  0.1181905264648651  0.1181817388625957
  0.3823068888366532  0.8820046581817799  0.8821130704987704
  0.6179544608264230  0.6182774568349231  0.3816945976570720
  0.6180095292525973  0.3818833031999197  0.6180095292525972
  0.3816945976570720  0.6182774568349231  0.6179544608264229
  0.3818545027655138  0.3820885734525861  0.3818545027655137
  0.7499021684852463  0.7497114521490282  0.7499021684852464
  0.7498872452256393  0.2499620740441799  0.2499329152608946
  0.2498485903999756  0.7501693993846029  0.2498485903999755
  0.2499329152608947  0.2499620740441799  0.7498872452256392
  0.9999712349577988  0.9995572763924999  0.9999712349577987
  0.9992517282954773  0.4999752307265104  0.4999343381355431
  0.4999627330473528  0.0001721704632353  0.4999627330473528
  0.4999343381355432  0.4999752307265104  0.9992517282954771
