Li24 P4 S20 Cl4                         
   1.00000000000000     
     9.6519922897247472    0.0000000000000000    0.0000000000000000
     0.0000000000000000    9.6519922897247472    0.0000000000000000
     0.0000000000000000    0.0000000000000000    9.6519922897247472
   Li   P    S    Cl
    24     4    20     4
Direct
  0.9880851430416323  0.2955366873575325  0.2911969029804972
  0.9849159171301085  0.8205808577487780  0.7816893876171633
  0.0452270689912842  0.1869878151181610  0.8573178614733830
  0.0183126355504174  0.7811823120981842  0.2171774064085707
  0.3366111864742309  0.2841104241425778  0.9756710222414871
  0.2103285298633481  0.8283592411312050  0.0173731540599416
  0.6917416291545021  0.3591914975820555  0.0373936640212775
  0.7919520848667218  0.7897627030046572  0.9733533758191195
  0.3200590560398233  0.9471009905673549  0.3365982317230555
  0.3123379986207381  0.0147226220639814  0.6861499996988208
  0.7156032441397621  0.9916897210414182  0.7307003916465261
  0.8274684664640974  0.0465941242735491  0.1770503704219800
  0.1837343294909423  0.6597499145495331  0.4585664138381509
  0.1766202666273335  0.3051866201905239  0.5372692747714648
  0.6704498953307867  0.8121825387789131  0.5158886947263601
  0.7321175790239658  0.2048078712566806  0.4839917199280746
  0.2895815442977142  0.4783746672656193  0.7818271620573310
  0.2864176978984697  0.5072794977832188  0.1924351645716615
  0.8002991737827641  0.4867007684928878  0.3281530891127613
  0.8506765873131075  0.5420268889337814  0.6701730838685090
  0.4906088042883651  0.2262959751681591  0.6957548261710682
  0.4781023880613192  0.7004277187100861  0.1592089574346569
  0.5253412737971466  0.1964124474838381  0.2918372343551281
  0.5462534120292335  0.6652053254938608  0.8064647551266936
  0.5012586594124332  0.5056657423411465  0.4905822633438577
  0.5060915120922040  0.0025143952011138  0.0027314698501892
  0.9994128156784297  0.4971763084029998  0.9880182717519941
  0.0077501361788166  0.9982986420597569  0.4977894039751831
  0.1381348528869756  0.8641165893105812  0.5994279579011405
  0.1327275980664647  0.1165103288677297  0.3731877848925772
  0.8687352657833745  0.8916771503443617  0.3780196653770400
  0.9063758442799292  0.1228025312410955  0.6377151900719996
  0.8723271148588760  0.6079361900164992  0.1188724778541285
  0.8763672096201764  0.3802005090785407  0.8620794070102868
  0.1199490962438141  0.6290432876193700  0.8730887009615881
  0.1211001422939545  0.3576837513738013  0.0953420872252345
  0.6213248577799851  0.1465986773300595  0.8964292213294649
  0.6331287964746605  0.8895522128762695  0.1298636596818948
  0.3642872501944509  0.0979926568720560  0.1292849163242637
  0.4044306149691554  0.8709800540911254  0.8697823143751126
  0.6100313335840439  0.6315372331273424  0.3589591217144644
  0.6396751662175237  0.4007391561839374  0.6144748311200927
  0.3824700644133440  0.6309381673885528  0.6146477543828742
  0.3745193016044653  0.3723009898620308  0.3839689686572740
  0.7576709797112344  0.7577426958140289  0.7384819325115982
  0.7533071414227510  0.2614270211624096  0.2532722169464108
  0.2514362813204316  0.7383218912990095  0.2385266748456646
  0.2606865496091091  0.2422180691735805  0.7525205091642736
  0.9931729234040865  0.9621830514673670  0.9971059477482611
  0.0056714231030839  0.4835639955630205  0.4754041302266568
  0.5247188674498886  0.0325051003187272  0.5194538556346083
  0.4758767790694164  0.4992493513766691  0.9961957910473185
 
  0.00000000E+00  0.00000000E+00  0.00000000E+00
  0.00000000E+00  0.00000000E+00  0.00000000E+00
  0.00000000E+00  0.00000000E+00  0.00000000E+00
  0.00000000E+00  0.00000000E+00  0.00000000E+00
  0.00000000E+00  0.00000000E+00  0.00000000E+00
  0.00000000E+00  0.00000000E+00  0.00000000E+00
  0.00000000E+00  0.00000000E+00  0.00000000E+00
  0.00000000E+00  0.00000000E+00  0.00000000E+00
  0.00000000E+00  0.00000000E+00  0.00000000E+00
  0.00000000E+00  0.00000000E+00  0.00000000E+00
  0.00000000E+00  0.00000000E+00  0.00000000E+00
  0.00000000E+00  0.00000000E+00  0.00000000E+00
  0.00000000E+00  0.00000000E+00  0.00000000E+00
  0.00000000E+00  0.00000000E+00  0.00000000E+00
  0.00000000E+00  0.00000000E+00  0.00000000E+00
  0.00000000E+00  0.00000000E+00  0.00000000E+00
  0.00000000E+00  0.00000000E+00  0.00000000E+00
  0.00000000E+00  0.00000000E+00  0.00000000E+00
  0.00000000E+00  0.00000000E+00  0.00000000E+00
  0.00000000E+00  0.00000000E+00  0.00000000E+00
  0.00000000E+00  0.00000000E+00  0.00000000E+00
  0.00000000E+00  0.00000000E+00  0.00000000E+00
  0.00000000E+00  0.00000000E+00  0.00000000E+00
  0.00000000E+00  0.00000000E+00  0.00000000E+00
  0.00000000E+00  0.00000000E+00  0.00000000E+00
  0.00000000E+00  0.00000000E+00  0.00000000E+00
  0.00000000E+00  0.00000000E+00  0.00000000E+00
  0.00000000E+00  0.00000000E+00  0.00000000E+00
  0.00000000E+00  0.00000000E+00  0.00000000E+00
  0.00000000E+00  0.00000000E+00  0.00000000E+00
  0.00000000E+00  0.00000000E+00  0.00000000E+00
  0.00000000E+00  0.00000000E+00  0.00000000E+00
  0.00000000E+00  0.00000000E+00  0.00000000E+00
  0.00000000E+00  0.00000000E+00  0.00000000E+00
  0.00000000E+00  0.00000000E+00  0.00000000E+00
  0.00000000E+00  0.00000000E+00  0.00000000E+00
  0.00000000E+00  0.00000000E+00  0.00000000E+00
  0.00000000E+00  0.00000000E+00  0.00000000E+00
  0.00000000E+00  0.00000000E+00  0.00000000E+00
  0.00000000E+00  0.00000000E+00  0.00000000E+00
  0.00000000E+00  0.00000000E+00  0.00000000E+00
  0.00000000E+00  0.00000000E+00  0.00000000E+00
  0.00000000E+00  0.00000000E+00  0.00000000E+00
  0.00000000E+00  0.00000000E+00  0.00000000E+00
  0.00000000E+00  0.00000000E+00  0.00000000E+00
  0.00000000E+00  0.00000000E+00  0.00000000E+00
  0.00000000E+00  0.00000000E+00  0.00000000E+00
  0.00000000E+00  0.00000000E+00  0.00000000E+00
  0.00000000E+00  0.00000000E+00  0.00000000E+00
  0.00000000E+00  0.00000000E+00  0.00000000E+00
  0.00000000E+00  0.00000000E+00  0.00000000E+00
  0.00000000E+00  0.00000000E+00  0.00000000E+00
