Li24 P4 S20 Cl4                         
   1.00000000000000     
     9.6519922897247472    0.0000000000000000    0.0000000000000000
     0.0000000000000000    9.6519922897247472    0.0000000000000000
     0.0000000000000000    0.0000000000000000    9.6519922897247472
   Li   P    S    Cl
    24     4    20     4
Direct
  0.9880837099473752  0.2955340867306475  0.2911962137778232
  0.9849181431696508  0.8205634736660770  0.7816901666580733
  0.0452239654526423  0.1869889164934833  0.8573035627464591
  0.0183130172971744  0.7811760937009282  0.2171866411921783
  0.3366054456248193  0.2841121384759475  0.9756705267021815
  0.2103257491145953  0.8283609263903102  0.0173777657681100
  0.6917398808768809  0.3591831984325893  0.0373884995941367
  0.7919572254761675  0.7897561019235155  0.9733530834115456
  0.3200591473799079  0.9471112646475603  0.3365910333895243
  0.3123334307597005  0.0147236721300459  0.6861494449322052
  0.7156242018774535  0.9916876371975718  0.7307131046942672
  0.8274629153127009  0.0465893359740264  0.1770482688090311
  0.1837359523778730  0.6597543043859488  0.4585717831966747
  0.1766250777345775  0.3051894117632017  0.5372650034105817
  0.6704527373128357  0.8121884855444890  0.5158921615966179
  0.7321112399835954  0.2048024548381733  0.4839866620568714
  0.2895814091743958  0.4783729520456816  0.7818267729234023
  0.2864104779693335  0.5072870707329429  0.1924332503299411
  0.8002991150707359  0.4866978076517725  0.3281497505337256
  0.8506651028554870  0.5420197612033775  0.6701699002954200
  0.4906087762298057  0.2262876156217217  0.6957524606538925
  0.4781049456212543  0.7004242970430283  0.1592229224519599
  0.5253409812700696  0.1964257505576441  0.2918342677025620
  0.5462460625803018  0.6652170804166815  0.8064696397005235
  0.5012577666362148  0.5056667991073809  0.4905819300022287
  0.5060919172819851  0.0025174295596031  0.0027311767447458
  0.9994212118916863  0.4971803146958962  0.9880177130739369
  0.0077513899496537  0.9983012580960562  0.4977850769379302
  0.1381317333940970  0.8641176290548103  0.5994325238928155
  0.1327278366795923  0.1165115223478850  0.3731890233864164
  0.8687333483178890  0.8916780790472458  0.3780183603280918
  0.9063723311446807  0.1228101522395093  0.6377114660095771
  0.8723294573036853  0.6079367603843195  0.1188777425360144
  0.8763735146067333  0.3802055440194181  0.8620853941277673
  0.1199591845388071  0.6290441492385597  0.8730936726815415
  0.1211046616897775  0.3576779294695456  0.0953482625222435
  0.6213276692238878  0.1465968897910273  0.8964250125472475
  0.6331297383728653  0.8895450091540695  0.1298571075329065
  0.3642937056989481  0.0979984532297493  0.1292858453976535
  0.4044218408425380  0.8709829143603898  0.8697806909610151
  0.6100375868598036  0.6315394161071097  0.3589662354876708
  0.6396735048751339  0.4007303555195492  0.6144741822565933
  0.3824692749441425  0.6309365042718937  0.6146511320417218
  0.3745161931644461  0.3723058610317551  0.3839625016091830
  0.7576702639457125  0.7577382585735322  0.7384826526593500
  0.7533082121227110  0.2614255940200536  0.2532685529321697
  0.2514376774854910  0.7383266670449231  0.2385313057134368
  0.2606867999819116  0.2422189911635613  0.7525182204028766
  0.9931685668450356  0.9621763574821500  0.9970976199091695
  0.0056706632272707  0.4835638400102766  0.4754027368786282
  0.5247168287412833  0.0325085111390919  0.5194500906791859
  0.4758728997655766  0.4992499522730114  0.9961995542193094
 
  0.00000000E+00  0.00000000E+00  0.00000000E+00
  0.00000000E+00  0.00000000E+00  0.00000000E+00
  0.00000000E+00  0.00000000E+00  0.00000000E+00
  0.00000000E+00  0.00000000E+00  0.00000000E+00
  0.00000000E+00  0.00000000E+00  0.00000000E+00
  0.00000000E+00  0.00000000E+00  0.00000000E+00
  0.00000000E+00  0.00000000E+00  0.00000000E+00
  0.00000000E+00  0.00000000E+00  0.00000000E+00
  0.00000000E+00  0.00000000E+00  0.00000000E+00
  0.00000000E+00  0.00000000E+00  0.00000000E+00
  0.00000000E+00  0.00000000E+00  0.00000000E+00
  0.00000000E+00  0.00000000E+00  0.00000000E+00
  0.00000000E+00  0.00000000E+00  0.00000000E+00
  0.00000000E+00  0.00000000E+00  0.00000000E+00
  0.00000000E+00  0.00000000E+00  0.00000000E+00
  0.00000000E+00  0.00000000E+00  0.00000000E+00
  0.00000000E+00  0.00000000E+00  0.00000000E+00
  0.00000000E+00  0.00000000E+00  0.00000000E+00
  0.00000000E+00  0.00000000E+00  0.00000000E+00
  0.00000000E+00  0.00000000E+00  0.00000000E+00
  0.00000000E+00  0.00000000E+00  0.00000000E+00
  0.00000000E+00  0.00000000E+00  0.00000000E+00
  0.00000000E+00  0.00000000E+00  0.00000000E+00
  0.00000000E+00  0.00000000E+00  0.00000000E+00
  0.00000000E+00  0.00000000E+00  0.00000000E+00
  0.00000000E+00  0.00000000E+00  0.00000000E+00
  0.00000000E+00  0.00000000E+00  0.00000000E+00
  0.00000000E+00  0.00000000E+00  0.00000000E+00
  0.00000000E+00  0.00000000E+00  0.00000000E+00
  0.00000000E+00  0.00000000E+00  0.00000000E+00
  0.00000000E+00  0.00000000E+00  0.00000000E+00
  0.00000000E+00  0.00000000E+00  0.00000000E+00
  0.00000000E+00  0.00000000E+00  0.00000000E+00
  0.00000000E+00  0.00000000E+00  0.00000000E+00
  0.00000000E+00  0.00000000E+00  0.00000000E+00
  0.00000000E+00  0.00000000E+00  0.00000000E+00
  0.00000000E+00  0.00000000E+00  0.00000000E+00
  0.00000000E+00  0.00000000E+00  0.00000000E+00
  0.00000000E+00  0.00000000E+00  0.00000000E+00
  0.00000000E+00  0.00000000E+00  0.00000000E+00
  0.00000000E+00  0.00000000E+00  0.00000000E+00
  0.00000000E+00  0.00000000E+00  0.00000000E+00
  0.00000000E+00  0.00000000E+00  0.00000000E+00
  0.00000000E+00  0.00000000E+00  0.00000000E+00
  0.00000000E+00  0.00000000E+00  0.00000000E+00
  0.00000000E+00  0.00000000E+00  0.00000000E+00
  0.00000000E+00  0.00000000E+00  0.00000000E+00
  0.00000000E+00  0.00000000E+00  0.00000000E+00
  0.00000000E+00  0.00000000E+00  0.00000000E+00
  0.00000000E+00  0.00000000E+00  0.00000000E+00
  0.00000000E+00  0.00000000E+00  0.00000000E+00
  0.00000000E+00  0.00000000E+00  0.00000000E+00
