Li24 P4 S20 Cl4                         
   1.00000000000000     
     9.6604499534888646    0.0000000000000000    0.0000000000000000
     0.0000000000000000    9.6604499534888646    0.0000000000000000
     0.0000000000000000    0.0000000000000000    9.6604499534888646
   Li   P    S    Cl
    24     4    20     4
Direct
  0.9652554051149451  0.3455929844013426  0.3152518186556392
  0.9877204823782435  0.7123456646729522  0.7105772756366235
  0.0448128888908883  0.3176304851660987  0.6581156926465042
  0.0139847537072697  0.7030224583461049  0.2864522021712048
  0.1676545316030413  0.1914384744311874  0.9572103834491585
  0.1779119328627914  0.8166280271187176  0.0243372826396779
  0.8155238494419805  0.1980647033231691  0.0147867546792995
  0.8143080888356877  0.8272746933723383  0.9676089741170415
  0.1994787833441123  0.9955908209906852  0.2277531960116690
  0.3309612019615500  0.0227077284686743  0.6985411879071037
  0.6867376873814948  0.9556580180259573  0.6673188084640387
  0.8144293317888511  0.0225676950830689  0.2199030279584875
  0.2084592836443662  0.6874552463729913  0.4755031055559655
  0.3122865362689424  0.2173616121318318  0.5134340125694479
  0.7913105202103949  0.6627943689158897  0.5255950997626258
  0.7216675492765958  0.2000786682098692  0.4765723757591829
  0.3021022737178498  0.4812219849677746  0.7910053153044529
  0.3247773018000970  0.5479178333752444  0.1633347448954368
  0.6724901685781504  0.4697228132214661  0.1697194441815455
  0.7198197015012298  0.5129875785895095  0.8101635986361799
  0.4925305491577063  0.2895736210442692  0.8092684760195326
  0.4673450115974660  0.8312228282917005  0.3311087335889127
  0.5222616038625674  0.2029446381769660  0.2831801784693440
  0.5298079470688180  0.7036727245576344  0.8211310257583548
  0.5069483290574084  0.5072984216990619  0.4918391762938299
  0.5012224658091995  0.9997411953340958  0.0033640183027472
  0.0074478587521014  0.4994847978658896  0.9984420516368502
  0.0028605611138985  0.0034400312141116  0.5142040953129623
  0.1401632252174068  0.8831565769091014  0.6210132378844051
  0.1068717299752748  0.1447423866371125  0.3921457923493818
  0.8730906792826829  0.8766983254371965  0.4018247401468784
  0.8824295477570558  0.1178039905277757  0.6452211887058255
  0.8690650261001522  0.6180089496902070  0.1078365957441747
  0.9055674458747873  0.3682710547105970  0.8659322085511789
  0.1324109169284640  0.6266010914898033  0.8826050110566612
  0.1294341889615609  0.3843981749628398  0.1268775728132354
  0.6337156499537855  0.1026347402110588  0.8720083424158389
  0.6211325846348927  0.8824160550542146  0.1326530347628534
  0.3729150871370877  0.1336309882241977  0.1075089154785758
  0.3747316947614081  0.8759809449879157  0.8860490068857345
  0.6191887957328035  0.6289449549903665  0.3592475719309718
  0.6323127441544614  0.3843059176042516  0.6123741439883545
  0.3951014804466197  0.6349240527891169  0.6200053788003785
  0.3789356356171822  0.3944894890806552  0.3650514745448632
  0.7556056073056823  0.7411359017226928  0.7508660506040741
  0.7528193021843421  0.2531666061375759  0.2433221581272775
  0.2450844214548553  0.7619250572152083  0.2497047338404670
  0.2638898922793942  0.2516533659942084  0.7433839925961081
  0.9978906100102805  0.0018766983662957  0.0354423467595737
  0.0057986969145034  0.5308402501531972  0.4978679782542912
  0.5022087414449885  0.0359652155784573  0.4927247048882251
  0.5089662582429568  0.4948987877569664  0.9652918154864807
 
  0.00000000E+00  0.00000000E+00  0.00000000E+00
  0.00000000E+00  0.00000000E+00  0.00000000E+00
  0.00000000E+00  0.00000000E+00  0.00000000E+00
  0.00000000E+00  0.00000000E+00  0.00000000E+00
  0.00000000E+00  0.00000000E+00  0.00000000E+00
  0.00000000E+00  0.00000000E+00  0.00000000E+00
  0.00000000E+00  0.00000000E+00  0.00000000E+00
  0.00000000E+00  0.00000000E+00  0.00000000E+00
  0.00000000E+00  0.00000000E+00  0.00000000E+00
  0.00000000E+00  0.00000000E+00  0.00000000E+00
  0.00000000E+00  0.00000000E+00  0.00000000E+00
  0.00000000E+00  0.00000000E+00  0.00000000E+00
  0.00000000E+00  0.00000000E+00  0.00000000E+00
  0.00000000E+00  0.00000000E+00  0.00000000E+00
  0.00000000E+00  0.00000000E+00  0.00000000E+00
  0.00000000E+00  0.00000000E+00  0.00000000E+00
  0.00000000E+00  0.00000000E+00  0.00000000E+00
  0.00000000E+00  0.00000000E+00  0.00000000E+00
  0.00000000E+00  0.00000000E+00  0.00000000E+00
  0.00000000E+00  0.00000000E+00  0.00000000E+00
  0.00000000E+00  0.00000000E+00  0.00000000E+00
  0.00000000E+00  0.00000000E+00  0.00000000E+00
  0.00000000E+00  0.00000000E+00  0.00000000E+00
  0.00000000E+00  0.00000000E+00  0.00000000E+00
  0.00000000E+00  0.00000000E+00  0.00000000E+00
  0.00000000E+00  0.00000000E+00  0.00000000E+00
  0.00000000E+00  0.00000000E+00  0.00000000E+00
  0.00000000E+00  0.00000000E+00  0.00000000E+00
  0.00000000E+00  0.00000000E+00  0.00000000E+00
  0.00000000E+00  0.00000000E+00  0.00000000E+00
  0.00000000E+00  0.00000000E+00  0.00000000E+00
  0.00000000E+00  0.00000000E+00  0.00000000E+00
  0.00000000E+00  0.00000000E+00  0.00000000E+00
  0.00000000E+00  0.00000000E+00  0.00000000E+00
  0.00000000E+00  0.00000000E+00  0.00000000E+00
  0.00000000E+00  0.00000000E+00  0.00000000E+00
  0.00000000E+00  0.00000000E+00  0.00000000E+00
  0.00000000E+00  0.00000000E+00  0.00000000E+00
  0.00000000E+00  0.00000000E+00  0.00000000E+00
  0.00000000E+00  0.00000000E+00  0.00000000E+00
  0.00000000E+00  0.00000000E+00  0.00000000E+00
  0.00000000E+00  0.00000000E+00  0.00000000E+00
  0.00000000E+00  0.00000000E+00  0.00000000E+00
  0.00000000E+00  0.00000000E+00  0.00000000E+00
  0.00000000E+00  0.00000000E+00  0.00000000E+00
  0.00000000E+00  0.00000000E+00  0.00000000E+00
  0.00000000E+00  0.00000000E+00  0.00000000E+00
  0.00000000E+00  0.00000000E+00  0.00000000E+00
  0.00000000E+00  0.00000000E+00  0.00000000E+00
  0.00000000E+00  0.00000000E+00  0.00000000E+00
  0.00000000E+00  0.00000000E+00  0.00000000E+00
  0.00000000E+00  0.00000000E+00  0.00000000E+00
