Li24 P4 S20 Cl4                         
   1.00000000000000     
     9.6575578267957152    0.0000000000000000    0.0000000000000000
     0.0000000000000000    9.6575578267957152    0.0000000000000000
     0.0000000000000000    0.0000000000000000    9.6575578267957152
   Li   P    S    Cl
    24     4    20     4
Direct
  0.9583518849476960  0.3168609996987470  0.3310370631882620
  0.9943083174575449  0.7014139012874665  0.6961563162496418
  0.0285867074751351  0.2757329972660187  0.6838627532756973
  0.0731670964799491  0.7875554418152930  0.0791042694971296
  0.1817776368748625  0.1900652308529587  0.9741919747817889
  0.3447266344560944  0.6487966060548729  0.0476316810241144
  0.7959023246675443  0.2151093971757589  0.0202539144285439
  0.6948307155997284  0.6782726332445463  0.9674780158560665
  0.1995902031802288  0.9885209422760326  0.2248958924116948
  0.3219568765567047  0.0261465621844508  0.7303993161589943
  0.8319858561619071  0.9616638241496887  0.8257112694011184
  0.8247028361997408  0.0205282148203736  0.2147449962194017
  0.2749133595311619  0.8002233552346709  0.4820059051022980
  0.3296298595649247  0.2152876574854332  0.5256742457803654
  0.7275100603258409  0.8224241401583043  0.5238871188229837
  0.6660622320931537  0.1710866090399108  0.4673538999727569
  0.2135616933419939  0.4794407546870758  0.7011931363405424
  0.1686407673224508  0.5481752001198004  0.3216547650009005
  0.7142664291587550  0.4818578906709945  0.2096140971985108
  0.7898617442941855  0.5156817811630674  0.6698126346411897
  0.4782040942579044  0.3256296834816226  0.8334534211591915
  0.4863266218756337  0.8119507706930023  0.2992266995084236
  0.5146181915820947  0.3035239542562351  0.1890762736893024
  0.5360448445753789  0.8035645580167738  0.7181861479189635
  0.5002298592229337  0.5066674198356154  0.4987532894801632
  0.5072353483620873  0.9934160344495027  0.0068852642031629
  0.0045532479051644  0.4959829581331263  0.0021503469993220
  0.0048957666552241  0.0011710479051814  0.5091739153276222
  0.1273566828749537  0.8978394938655114  0.6498394485569179
  0.1240071476770268  0.1406576887035271  0.4001819356006706
  0.9174305298461718  0.8619897526065685  0.3778683510918768
  0.8580124947135630  0.1087138481475449  0.6196709612246138
  0.8878441549178788  0.6263774974028067  0.1225244960055605
  0.8868843886732307  0.3804550652459611  0.8685827977433789
  0.1370618682091376  0.6223810813943800  0.8910847103557629
  0.1169613020794387  0.3745241081227348  0.1344744450397428
  0.6209722750681692  0.1120174612257046  0.8719154234283266
  0.6410690964304067  0.8768108031974791  0.1234663550241208
  0.3791989478238165  0.1180390450380955  0.1227223866968785
  0.3828594841855093  0.8593882482342181  0.8984056246168208
  0.6358692900897083  0.6284696798158222  0.3899030796897307
  0.6061771686618371  0.3640541225344549  0.6165030529310727
  0.3850099965292770  0.6310982555156457  0.6267559435391803
  0.3708357442041432  0.4001382560811422  0.3686552887196584
  0.7642591487315471  0.7433196387117036  0.7473696373364191
  0.7427236814926346  0.2467133477677521  0.2515100842367275
  0.2569187284241252  0.7588541281635699  0.2469444014239528
  0.2587474797678908  0.2532919364688695  0.7550474008849406
  0.9946214371842359  0.0181471700818250  0.0222116281959828
  0.0152249468322339  0.4927247036250861  0.5328584144022770
  0.4921055049459611  0.9772166764997223  0.5152457561259993
  0.5317123878113534  0.4908174590934422  0.0192835307916610
 
  0.00000000E+00  0.00000000E+00  0.00000000E+00
  0.00000000E+00  0.00000000E+00  0.00000000E+00
  0.00000000E+00  0.00000000E+00  0.00000000E+00
  0.00000000E+00  0.00000000E+00  0.00000000E+00
  0.00000000E+00  0.00000000E+00  0.00000000E+00
  0.00000000E+00  0.00000000E+00  0.00000000E+00
  0.00000000E+00  0.00000000E+00  0.00000000E+00
  0.00000000E+00  0.00000000E+00  0.00000000E+00
  0.00000000E+00  0.00000000E+00  0.00000000E+00
  0.00000000E+00  0.00000000E+00  0.00000000E+00
  0.00000000E+00  0.00000000E+00  0.00000000E+00
  0.00000000E+00  0.00000000E+00  0.00000000E+00
  0.00000000E+00  0.00000000E+00  0.00000000E+00
  0.00000000E+00  0.00000000E+00  0.00000000E+00
  0.00000000E+00  0.00000000E+00  0.00000000E+00
  0.00000000E+00  0.00000000E+00  0.00000000E+00
  0.00000000E+00  0.00000000E+00  0.00000000E+00
  0.00000000E+00  0.00000000E+00  0.00000000E+00
  0.00000000E+00  0.00000000E+00  0.00000000E+00
  0.00000000E+00  0.00000000E+00  0.00000000E+00
  0.00000000E+00  0.00000000E+00  0.00000000E+00
  0.00000000E+00  0.00000000E+00  0.00000000E+00
  0.00000000E+00  0.00000000E+00  0.00000000E+00
  0.00000000E+00  0.00000000E+00  0.00000000E+00
  0.00000000E+00  0.00000000E+00  0.00000000E+00
  0.00000000E+00  0.00000000E+00  0.00000000E+00
  0.00000000E+00  0.00000000E+00  0.00000000E+00
  0.00000000E+00  0.00000000E+00  0.00000000E+00
  0.00000000E+00  0.00000000E+00  0.00000000E+00
  0.00000000E+00  0.00000000E+00  0.00000000E+00
  0.00000000E+00  0.00000000E+00  0.00000000E+00
  0.00000000E+00  0.00000000E+00  0.00000000E+00
  0.00000000E+00  0.00000000E+00  0.00000000E+00
  0.00000000E+00  0.00000000E+00  0.00000000E+00
  0.00000000E+00  0.00000000E+00  0.00000000E+00
  0.00000000E+00  0.00000000E+00  0.00000000E+00
  0.00000000E+00  0.00000000E+00  0.00000000E+00
  0.00000000E+00  0.00000000E+00  0.00000000E+00
  0.00000000E+00  0.00000000E+00  0.00000000E+00
  0.00000000E+00  0.00000000E+00  0.00000000E+00
  0.00000000E+00  0.00000000E+00  0.00000000E+00
  0.00000000E+00  0.00000000E+00  0.00000000E+00
  0.00000000E+00  0.00000000E+00  0.00000000E+00
  0.00000000E+00  0.00000000E+00  0.00000000E+00
  0.00000000E+00  0.00000000E+00  0.00000000E+00
  0.00000000E+00  0.00000000E+00  0.00000000E+00
  0.00000000E+00  0.00000000E+00  0.00000000E+00
  0.00000000E+00  0.00000000E+00  0.00000000E+00
  0.00000000E+00  0.00000000E+00  0.00000000E+00
  0.00000000E+00  0.00000000E+00  0.00000000E+00
  0.00000000E+00  0.00000000E+00  0.00000000E+00
  0.00000000E+00  0.00000000E+00  0.00000000E+00
