Li24 P4 S20 Cl4                         
   1.00000000000000     
    10.0233963632392538    0.0000000000000000    0.0000000000000000
     0.0000000000000000   10.0233963632392538    0.0000000000000000
     0.0000000000000000    0.0000000000000000   10.0233963632392538
   Li   P    S    Cl
    24     4    20     4
Direct
  0.9770694985123356  0.2500000000000000  0.2500000000000000
  0.9762898018732074  0.7500000000000000  0.7500000000000000
  0.0237101981267926  0.2500000000000000  0.7500000000000000
  0.0229305014876644  0.7500000000000000  0.2500000000000000
  0.2503116239605276  0.2500732379357373  0.9767008382259093
  0.2497588324103290  0.7499225114007046  0.0233295528492761
  0.7502411675896710  0.2500774885992954  0.0233295528492761
  0.7496883760394724  0.7499267620642627  0.9767008382259093
  0.2499760497954426  0.9767428916364622  0.2498989437570671
  0.2500991688802259  0.0233517963890932  0.7497420796825978
  0.7499008311197741  0.9766482036109068  0.7497420796825978
  0.7500239502045574  0.0232571083635378  0.2498989437570671
  0.2497588324103290  0.7500774885992954  0.4766704471507239
  0.2503116239605276  0.2499267620642627  0.5232991617740907
  0.7496883760394724  0.7500732379357373  0.5232991617740907
  0.7502411675896710  0.2499225114007046  0.4766704471507239
  0.2500991688802259  0.4766482036109068  0.7502579203173951
  0.2499760497954426  0.5232571083635378  0.2501010562429329
  0.7500239502045574  0.4767428916364622  0.2501010562429329
  0.7499008311197741  0.5233517963890932  0.7502579203173951
  0.4777903181070755  0.2500000000000000  0.7500000000000000
  0.4767487651391065  0.7500000000000000  0.2500000000000000
  0.5232512348608935  0.2500000000000000  0.2500000000000000
  0.5222096818929245  0.7500000000000000  0.7500000000000000
  0.5000000000000000  0.5000000000000000  0.4998435334381526
  0.5000000000000000  0.0000000000000000  0.0001564665618474
  0.0000000000000000  0.5000000000000000  0.9999137400921185
  0.0000000000000000  0.0000000000000000  0.5000862599078815
  0.1179372596230976  0.8818688658949583  0.6181919184971250
  0.1182235515025312  0.1179602792290453  0.3821123296754294
  0.8817764484974688  0.8820397207709547  0.3821123296754294
  0.8820627403769095  0.1181311341050417  0.6181919184971250
  0.8817764484974688  0.6179602792290453  0.1178876703245706
  0.8820627403769095  0.3818688658949583  0.8818080815028750
  0.1179372596230976  0.6181311341050417  0.8818080815028750
  0.1182235515025312  0.3820397207709547  0.1178876703245706
  0.6184887799658654  0.1177630613167864  0.8822660701492495
  0.6179957120063193  0.8818441466806561  0.1181753031163666
  0.3820042879936807  0.1181558533193439  0.1181753031163666
  0.3815112200341346  0.8822369386832136  0.8822660701492495
  0.6179957120063193  0.6181558533193439  0.3818246968836334
  0.6184887799658654  0.3822369386832136  0.6177339298507505
  0.3815112200341346  0.6177630613167864  0.6177339298507505
  0.3820042879936807  0.3818441466806561  0.3818246968836334
  0.7492824564727414  0.7500000000000000  0.7500000000000000
  0.7501271144802217  0.2500000000000000  0.2500000000000000
  0.2498728855197712  0.7500000000000000  0.2500000000000000
  0.2507175435272586  0.2500000000000000  0.7500000000000000
  0.0000000000000000  0.0000000000000000  0.0000921205140969
  0.0000000000000000  0.5000000000000000  0.4999078794859031
  0.5000000000000000  0.0000000000000000  0.5000816410769957
  0.5000000000000000  0.5000000000000000  0.9999183589230043
 
  0.00000000E+00  0.00000000E+00  0.00000000E+00
  0.00000000E+00  0.00000000E+00  0.00000000E+00
  0.00000000E+00  0.00000000E+00  0.00000000E+00
  0.00000000E+00  0.00000000E+00  0.00000000E+00
  0.00000000E+00  0.00000000E+00  0.00000000E+00
  0.00000000E+00  0.00000000E+00  0.00000000E+00
  0.00000000E+00  0.00000000E+00  0.00000000E+00
  0.00000000E+00  0.00000000E+00  0.00000000E+00
  0.00000000E+00  0.00000000E+00  0.00000000E+00
  0.00000000E+00  0.00000000E+00  0.00000000E+00
  0.00000000E+00  0.00000000E+00  0.00000000E+00
  0.00000000E+00  0.00000000E+00  0.00000000E+00
  0.00000000E+00  0.00000000E+00  0.00000000E+00
  0.00000000E+00  0.00000000E+00  0.00000000E+00
  0.00000000E+00  0.00000000E+00  0.00000000E+00
  0.00000000E+00  0.00000000E+00  0.00000000E+00
  0.00000000E+00  0.00000000E+00  0.00000000E+00
  0.00000000E+00  0.00000000E+00  0.00000000E+00
  0.00000000E+00  0.00000000E+00  0.00000000E+00
  0.00000000E+00  0.00000000E+00  0.00000000E+00
  0.00000000E+00  0.00000000E+00  0.00000000E+00
  0.00000000E+00  0.00000000E+00  0.00000000E+00
  0.00000000E+00  0.00000000E+00  0.00000000E+00
  0.00000000E+00  0.00000000E+00  0.00000000E+00
  0.00000000E+00  0.00000000E+00  0.00000000E+00
  0.00000000E+00  0.00000000E+00  0.00000000E+00
  0.00000000E+00  0.00000000E+00  0.00000000E+00
  0.00000000E+00  0.00000000E+00  0.00000000E+00
  0.00000000E+00  0.00000000E+00  0.00000000E+00
  0.00000000E+00  0.00000000E+00  0.00000000E+00
  0.00000000E+00  0.00000000E+00  0.00000000E+00
  0.00000000E+00  0.00000000E+00  0.00000000E+00
  0.00000000E+00  0.00000000E+00  0.00000000E+00
  0.00000000E+00  0.00000000E+00  0.00000000E+00
  0.00000000E+00  0.00000000E+00  0.00000000E+00
  0.00000000E+00  0.00000000E+00  0.00000000E+00
  0.00000000E+00  0.00000000E+00  0.00000000E+00
  0.00000000E+00  0.00000000E+00  0.00000000E+00
  0.00000000E+00  0.00000000E+00  0.00000000E+00
  0.00000000E+00  0.00000000E+00  0.00000000E+00
  0.00000000E+00  0.00000000E+00  0.00000000E+00
  0.00000000E+00  0.00000000E+00  0.00000000E+00
  0.00000000E+00  0.00000000E+00  0.00000000E+00
  0.00000000E+00  0.00000000E+00  0.00000000E+00
  0.00000000E+00  0.00000000E+00  0.00000000E+00
  0.00000000E+00  0.00000000E+00  0.00000000E+00
  0.00000000E+00  0.00000000E+00  0.00000000E+00
  0.00000000E+00  0.00000000E+00  0.00000000E+00
  0.00000000E+00  0.00000000E+00  0.00000000E+00
  0.00000000E+00  0.00000000E+00  0.00000000E+00
  0.00000000E+00  0.00000000E+00  0.00000000E+00
  0.00000000E+00  0.00000000E+00  0.00000000E+00
