Automatic mesh
0
Monkh
  2  2  2
  0.  0.  0.