Li24 P4 S20 Cl4
1.0
  10.0295315252187063    0.0000000000000000    0.0000000000000000
   0.0000000000000000   10.0295315252187063    0.0000000000000000
   0.0000000000000000    0.0000000000000000   10.0295315252187063
Li P S Cl
24 4 20 4
direct
  0.9770919815988028  0.2500000000000000  0.2499999999999997
  0.9762947417477028  0.7500000000000000  0.7499999999999998
  0.0237052582522975  0.2500000000000000  0.7499999999999998
  0.0229080184011975  0.7500000000000000  0.2499999999999997
  0.2503056967169386  0.2500686667966232  0.9766870245266251
  0.2497599690007083  0.7499149446505757  0.0233470312751381
  0.7502400309992919  0.2500850553494242  0.0233470312751381
  0.7496943032830616  0.7499313332033768  0.9766870245266251
  0.2499840170895133  0.9767344148339874  0.2499053166383637
  0.2500861249555998  0.0233711701996830  0.7497457307939144
  0.7499138750444005  0.9766288298003170  0.7497457307939144
  0.7500159829104868  0.0232655851660125  0.2499053166383637
  0.2497599690007083  0.7500850553494243  0.4766529687248613
  0.2503056967169386  0.2499313332033768  0.5233129754733813
  0.7496943032830616  0.7500686667966231  0.5233129754733813
  0.7502400309992919  0.2499149446505758  0.4766529687248613
  0.2500861249555998  0.4766288298003170  0.7502542692060850
  0.2499840170895133  0.5232655851660126  0.2500946833616358
  0.7500159829104868  0.4767344148339875  0.2500946833616358
  0.7499138750444005  0.5233711701996830  0.7502542692060850
  0.4778591308431649  0.2500000000000000  0.7499999999999998
  0.4767882020381201  0.7500000000000000  0.2499999999999997
  0.5232117979618800  0.2500000000000000  0.2499999999999997
  0.5221408691568352  0.7500000000000000  0.7499999999999998
  0.5000000000000001  0.5000000000000000  0.4998315310541883
  0.5000000000000001  0.0000000000000000  0.0001684689458111
  0.0000000000000001  0.5000000000000000  0.9999145058240470
  0.0000000000000001  0.0000000000000000  0.5000854941759524
  0.1179798290819074  0.8818536060932172  0.6182075129531246
  0.1182664797307436  0.1179768309837594  0.3820986636420987
  0.8817335202692567  0.8820231690162406  0.3820986636420987
  0.8820201709180928  0.1181463939067827  0.6182075129531246
  0.8817335202692567  0.6179768309837592  0.1179013363579007
  0.8820201709180928  0.3818536060932173  0.8817924870468747
  0.1179798290819074  0.6181463939067828  0.8817924870468747
  0.1182664797307436  0.3820231690162406  0.1179013363579007
  0.6185554183398456  0.1177578696271068  0.8822692604364558
  0.6180416475472523  0.8818214827964793  0.1181933393833913
  0.3819583524527478  0.1181785172035206  0.1181933393833913
  0.3814445816601546  0.8822421303728933  0.8822692604364558
  0.6180416475472523  0.6181785172035207  0.3818066606166082
  0.6185554183398456  0.3822421303728932  0.6177307395635436
  0.3814445816601546  0.6177578696271067  0.6177307395635436
  0.3819583524527478  0.3818214827964794  0.3818066606166082
  0.7492490736602899  0.7500000000000000  0.7499999999999998
  0.7501182054387165  0.2500000000000000  0.2499999999999997
  0.2498817945612765  0.7500000000000000  0.2499999999999997
  0.2507509263397102  0.2500000000000000  0.7499999999999998
  0.0000000000000001  0.0000000000000000  0.0000787104808925
  0.0000000000000001  0.5000000000000000  0.4999212895191067
  0.5000000000000001  0.0000000000000000  0.5000664302849759
  0.5000000000000001  0.5000000000000000  0.9999335697150235
