Li24 P4 S20 Cl4                         
   1.00000000000000     
     9.6805470690622890    0.0000000000000000    0.0000000000000000
     0.0000000000000000    9.6805470690622890    0.0000000000000000
     0.0000000000000000    0.0000000000000000    9.6805470690622890
   Li   P    S    Cl
    24     4    20     4
Direct
  0.9769395447191696  0.3036453682293341  0.2875570540317740
  0.9716699156449438  0.8099456077571601  0.8039536446102037
  0.0291857900868001  0.3219499194429209  0.6843489599050437
  0.0160426229904364  0.8005055289370346  0.1863175179879722
  0.1827646363858746  0.2148274699466469  0.9736131633607885
  0.2821618822406821  0.6959644461116306  0.0165905259856609
  0.8263556228711848  0.1490905856926123  0.0379400378319920
  0.7232992585964939  0.7416166019513677  0.9786263546287030
  0.2236241905631819  0.9815853430776933  0.1804897657589982
  0.1888627906082140  0.0189225359471932  0.7864819573043065
  0.6924638310058168  0.9556168523872760  0.6713355561498628
  0.6996902885357560  0.0154907127999571  0.3311799810190659
  0.3277005253421865  0.8344776486496065  0.4631383369940066
  0.2818071566073157  0.2061710942057102  0.5124487596226410
  0.8330995125748994  0.6601247348433048  0.5279180396143178
  0.7851244433624587  0.3013505903485928  0.4798816070984404
  0.3179430897050782  0.4650655093887661  0.8025624486573295
  0.1764848342846373  0.5468182692268193  0.3447098001344814
  0.6794548264889597  0.4540025326566919  0.1780745207350416
  0.7098019700967753  0.5031519496593705  0.8104539115789100
  0.4750005261917984  0.1802384692522002  0.7119343024161349
  0.4752054557119138  0.6963395950856230  0.2097826430535412
  0.5170085090411592  0.2066210584768540  0.2975776620443392
  0.5176836257836949  0.7165199172048652  0.7730550323218854
  0.4958928794899218  0.4990379627391759  0.4979187797676034
  0.5030488271948955  0.0044501055732029  0.9971900900745402
  0.0019973439465861  0.4943809329284403  0.9983647843095489
  0.0004188410737990  0.9910938679416852  0.4928631748327211
  0.1249195220640800  0.8664848937855987  0.6106788232701061
  0.1169817817579297  0.1120388743605529  0.3625555577836920
  0.8758486559324353  0.8612836259884822  0.3808455534879259
  0.8826160385233910  0.1131151472775894  0.6202499662805097
  0.8727377592080736  0.6120266948802935  0.1195234215442830
  0.8872093789457500  0.3517450941834364  0.8911847407706210
  0.1131133702428094  0.6113123348872266  0.8603439216624534
  0.1391486439584605  0.3977643231152936  0.1269281456661952
  0.6417614670927415  0.1034784218972442  0.8720931856205585
  0.6138563711427820  0.8869961592100503  0.1354536804793206
  0.3851104201026539  0.1452031274078565  0.1021404359069671
  0.3761570763101788  0.8839639252837181  0.8762426793698708
  0.6306388394976651  0.6105266158221894  0.3787640324651804
  0.6059301133605871  0.3733276363602396  0.6296859169397740
  0.3657505161519637  0.6241637747365152  0.6086698531697959
  0.3726165501046888  0.3860231850556978  0.3678294248530883
  0.7518873768288539  0.7335675400859900  0.7449459910382954
  0.7492335311005337  0.2368740760585614  0.2516934323981702
  0.2472245448527768  0.7553709602134577  0.2455744675867840
  0.2477881253366805  0.2442940005656715  0.7445878804469879
  0.0291637167472551  0.9911755175092560  0.9954797596242304
  0.9824372222630314  0.4634003975389553  0.4859798622240499
  0.4977986973281256  0.0269548568197868  0.4972503387952093
  0.5066339800017908  0.5477197664950563  0.9839538767860960
 
  0.00000000E+00  0.00000000E+00  0.00000000E+00
  0.00000000E+00  0.00000000E+00  0.00000000E+00
  0.00000000E+00  0.00000000E+00  0.00000000E+00
  0.00000000E+00  0.00000000E+00  0.00000000E+00
  0.00000000E+00  0.00000000E+00  0.00000000E+00
  0.00000000E+00  0.00000000E+00  0.00000000E+00
  0.00000000E+00  0.00000000E+00  0.00000000E+00
  0.00000000E+00  0.00000000E+00  0.00000000E+00
  0.00000000E+00  0.00000000E+00  0.00000000E+00
  0.00000000E+00  0.00000000E+00  0.00000000E+00
  0.00000000E+00  0.00000000E+00  0.00000000E+00
  0.00000000E+00  0.00000000E+00  0.00000000E+00
  0.00000000E+00  0.00000000E+00  0.00000000E+00
  0.00000000E+00  0.00000000E+00  0.00000000E+00
  0.00000000E+00  0.00000000E+00  0.00000000E+00
  0.00000000E+00  0.00000000E+00  0.00000000E+00
  0.00000000E+00  0.00000000E+00  0.00000000E+00
  0.00000000E+00  0.00000000E+00  0.00000000E+00
  0.00000000E+00  0.00000000E+00  0.00000000E+00
  0.00000000E+00  0.00000000E+00  0.00000000E+00
  0.00000000E+00  0.00000000E+00  0.00000000E+00
  0.00000000E+00  0.00000000E+00  0.00000000E+00
  0.00000000E+00  0.00000000E+00  0.00000000E+00
  0.00000000E+00  0.00000000E+00  0.00000000E+00
  0.00000000E+00  0.00000000E+00  0.00000000E+00
  0.00000000E+00  0.00000000E+00  0.00000000E+00
  0.00000000E+00  0.00000000E+00  0.00000000E+00
  0.00000000E+00  0.00000000E+00  0.00000000E+00
  0.00000000E+00  0.00000000E+00  0.00000000E+00
  0.00000000E+00  0.00000000E+00  0.00000000E+00
  0.00000000E+00  0.00000000E+00  0.00000000E+00
  0.00000000E+00  0.00000000E+00  0.00000000E+00
  0.00000000E+00  0.00000000E+00  0.00000000E+00
  0.00000000E+00  0.00000000E+00  0.00000000E+00
  0.00000000E+00  0.00000000E+00  0.00000000E+00
  0.00000000E+00  0.00000000E+00  0.00000000E+00
  0.00000000E+00  0.00000000E+00  0.00000000E+00
  0.00000000E+00  0.00000000E+00  0.00000000E+00
  0.00000000E+00  0.00000000E+00  0.00000000E+00
  0.00000000E+00  0.00000000E+00  0.00000000E+00
  0.00000000E+00  0.00000000E+00  0.00000000E+00
  0.00000000E+00  0.00000000E+00  0.00000000E+00
  0.00000000E+00  0.00000000E+00  0.00000000E+00
  0.00000000E+00  0.00000000E+00  0.00000000E+00
  0.00000000E+00  0.00000000E+00  0.00000000E+00
  0.00000000E+00  0.00000000E+00  0.00000000E+00
  0.00000000E+00  0.00000000E+00  0.00000000E+00
  0.00000000E+00  0.00000000E+00  0.00000000E+00
  0.00000000E+00  0.00000000E+00  0.00000000E+00
  0.00000000E+00  0.00000000E+00  0.00000000E+00
  0.00000000E+00  0.00000000E+00  0.00000000E+00
  0.00000000E+00  0.00000000E+00  0.00000000E+00
