Li24 P4 S20 Cl4                         
   1.00000000000000     
     9.6372592763081393    0.0000000000000000    0.0000000000000000
     0.0000000000000000    9.6372592763081393    0.0000000000000000
     0.0000000000000000    0.0000000000000000    9.6372592763081393
   Li   P    S    Cl
    24     4    20     4
Direct
  0.9995336004845434  0.2106934141467291  0.1954992599045237
  0.9578171568579829  0.8252918096957292  0.8280022706102539
  0.0484466116083145  0.1723062876498505  0.8326206408005906
  0.0207732619412792  0.8030721278666848  0.2167018389705427
  0.3350946670975083  0.3057447392849438  0.9628466074492954
  0.4975395641056367  0.6578562686504198  0.8380667299704174
  0.7003029164372478  0.3018749963475609  0.0150321673906999
  0.7266085176812814  0.6880341494143140  0.9831957071981056
  0.2338992056097731  0.9088243434365730  0.0685964220790286
  0.2899013548260442  0.0173128714300319  0.6640587939793920
  0.7172000834312232  0.9811977013603375  0.6755772924386858
  0.7940461214403113  0.0240520728203373  0.1687264934603387
  0.1846932333358584  0.6833323376807338  0.4679094428028126
  0.1972560711318348  0.2992308767149456  0.5094403699705693
  0.8375250962059059  0.7016677802682121  0.5198733598978692
  0.8345228512378650  0.3142953906408447  0.4631280927198319
  0.1648565013907546  0.4717227676008309  0.7283882902092472
  0.3335652399019435  0.5503904861813753  0.1838390978081503
  0.6881549421706633  0.4798467359942045  0.2247543891002720
  0.8216701693002066  0.5194549463132330  0.7182865734127899
  0.4911370504188112  0.2097571826388372  0.6944658818226086
  0.4559754220986033  0.8512326862473176  0.3059229420546121
  0.5432825169982474  0.1800123437573969  0.3180074548695372
  0.5390755996819933  0.7859203440790644  0.5982480269742333
  0.5042915420879808  0.5002185105647764  0.5026889855841595
  0.5097079634214881  0.9953285281429958  0.9868057102250578
  0.0173847070350862  0.5055154798907456  0.0150631075944055
  0.0024882492146676  0.0052996591262848  0.4970972345621604
  0.1006936662570854  0.8631384155926374  0.6239185798588848
  0.1402763766862002  0.1050210789761647  0.3733913821873349
  0.8583174841328987  0.8998576985419252  0.3796113796603810
  0.8990467596278697  0.1383236524109513  0.6281570422095759
  0.8864671113528053  0.6101750287772326  0.1475102964609173
  0.9030018473486493  0.3729183580563944  0.8906850813178236
  0.1232912206581207  0.6452110990390181  0.8975650253698091
  0.1546650426057609  0.3843140080757370  0.1225415045435638
  0.6418053584108768  0.1149199249976032  0.8704089844656572
  0.6193043986192318  0.8634426958995810  0.1140329215511582
  0.3904350366126348  0.1139949001913917  0.1167982766072430
  0.3813417533505182  0.8808911024008227  0.8610444996951665
  0.6149504838644532  0.6481921778504443  0.3937753847015880
  0.6405924000389510  0.3824901070895395  0.6152795801568783
  0.3686122116037350  0.6070166997350045  0.6304690652716410
  0.3934991763361413  0.3797263421340888  0.3691277315476734
  0.7342987648263491  0.7441587069167777  0.7477089626563305
  0.7626327805470863  0.2510282588812031  0.2426511965589544
  0.2478918504143683  0.7575130274323809  0.2545853784407383
  0.2601126636767160  0.2480928690568210  0.7401812948066953
  0.0006816408236358  0.9971097195742926  0.0184570629296593
  0.0023448784834322  0.5018625813320506  0.5285226851971423
  0.5063288049659879  0.0116082089958688  0.5163580307180228
  0.5294115283465639  0.4924299625508871  0.0154669086690214
 
  0.00000000E+00  0.00000000E+00  0.00000000E+00
  0.00000000E+00  0.00000000E+00  0.00000000E+00
  0.00000000E+00  0.00000000E+00  0.00000000E+00
  0.00000000E+00  0.00000000E+00  0.00000000E+00
  0.00000000E+00  0.00000000E+00  0.00000000E+00
  0.00000000E+00  0.00000000E+00  0.00000000E+00
  0.00000000E+00  0.00000000E+00  0.00000000E+00
  0.00000000E+00  0.00000000E+00  0.00000000E+00
  0.00000000E+00  0.00000000E+00  0.00000000E+00
  0.00000000E+00  0.00000000E+00  0.00000000E+00
  0.00000000E+00  0.00000000E+00  0.00000000E+00
  0.00000000E+00  0.00000000E+00  0.00000000E+00
  0.00000000E+00  0.00000000E+00  0.00000000E+00
  0.00000000E+00  0.00000000E+00  0.00000000E+00
  0.00000000E+00  0.00000000E+00  0.00000000E+00
  0.00000000E+00  0.00000000E+00  0.00000000E+00
  0.00000000E+00  0.00000000E+00  0.00000000E+00
  0.00000000E+00  0.00000000E+00  0.00000000E+00
  0.00000000E+00  0.00000000E+00  0.00000000E+00
  0.00000000E+00  0.00000000E+00  0.00000000E+00
  0.00000000E+00  0.00000000E+00  0.00000000E+00
  0.00000000E+00  0.00000000E+00  0.00000000E+00
  0.00000000E+00  0.00000000E+00  0.00000000E+00
  0.00000000E+00  0.00000000E+00  0.00000000E+00
  0.00000000E+00  0.00000000E+00  0.00000000E+00
  0.00000000E+00  0.00000000E+00  0.00000000E+00
  0.00000000E+00  0.00000000E+00  0.00000000E+00
  0.00000000E+00  0.00000000E+00  0.00000000E+00
  0.00000000E+00  0.00000000E+00  0.00000000E+00
  0.00000000E+00  0.00000000E+00  0.00000000E+00
  0.00000000E+00  0.00000000E+00  0.00000000E+00
  0.00000000E+00  0.00000000E+00  0.00000000E+00
  0.00000000E+00  0.00000000E+00  0.00000000E+00
  0.00000000E+00  0.00000000E+00  0.00000000E+00
  0.00000000E+00  0.00000000E+00  0.00000000E+00
  0.00000000E+00  0.00000000E+00  0.00000000E+00
  0.00000000E+00  0.00000000E+00  0.00000000E+00
  0.00000000E+00  0.00000000E+00  0.00000000E+00
  0.00000000E+00  0.00000000E+00  0.00000000E+00
  0.00000000E+00  0.00000000E+00  0.00000000E+00
  0.00000000E+00  0.00000000E+00  0.00000000E+00
  0.00000000E+00  0.00000000E+00  0.00000000E+00
  0.00000000E+00  0.00000000E+00  0.00000000E+00
  0.00000000E+00  0.00000000E+00  0.00000000E+00
  0.00000000E+00  0.00000000E+00  0.00000000E+00
  0.00000000E+00  0.00000000E+00  0.00000000E+00
  0.00000000E+00  0.00000000E+00  0.00000000E+00
  0.00000000E+00  0.00000000E+00  0.00000000E+00
  0.00000000E+00  0.00000000E+00  0.00000000E+00
  0.00000000E+00  0.00000000E+00  0.00000000E+00
  0.00000000E+00  0.00000000E+00  0.00000000E+00
  0.00000000E+00  0.00000000E+00  0.00000000E+00
