Li24 P4 S20 Cl4                         
   1.00000000000000     
     9.6372592763081393    0.0000000000000000    0.0000000000000000
     0.0000000000000000    9.6372592763081393    0.0000000000000000
     0.0000000000000000    0.0000000000000000    9.6372592763081393
   Li   P    S    Cl
    24     4    20     4
Direct
  0.9995260372657953  0.2107048265638980  0.1954960349841812
  0.9578217194450858  0.8252901771160523  0.8279969587123119
  0.0484395246906075  0.1723062258926191  0.8326140873199037
  0.0207738604191547  0.8030626727192853  0.2166978640017092
  0.3350907205330103  0.3057448718917684  0.9628447704072798
  0.4975422188987935  0.6578560252537997  0.8380647267853973
  0.7002956023619618  0.3018702462180372  0.0150343369058064
  0.7266088557052512  0.6880483768176546  0.9831968909876281
  0.2338969071217392  0.9088570395369118  0.0686185159256212
  0.2899078886723032  0.0173040508224744  0.6640854070308464
  0.7171976289476731  0.9811964966109201  0.6755839030337327
  0.7940526532570971  0.0240525040725998  0.1687392974781048
  0.1846958915489623  0.6833391500775718  0.4679088954346469
  0.1972631444853334  0.2992208871097404  0.5094405482526128
  0.8375268323825296  0.7016631428214524  0.5198756965160456
  0.8345228616095781  0.3142960365854250  0.4631286724400780
  0.1648660702426952  0.4717239213515683  0.7283782337402727
  0.3335607140669907  0.5503908424868342  0.1838345487620359
  0.6881585256642140  0.4798476673294587  0.2247480641969162
  0.8216685150326981  0.5194527798860378  0.7182904945032362
  0.4911339116418389  0.2097597871528691  0.6944633501716737
  0.4559804813364110  0.8512221755485143  0.3059238040520853
  0.5432817977417344  0.1800125222971403  0.3180142973590634
  0.5390886351936643  0.7859152069482249  0.5982373733634958
  0.5042889390030183  0.5002178739217058  0.5026879803028166
  0.5097066985057310  0.9953303581607500  0.9868075380716661
  0.0173732419545090  0.5055153322352837  0.0150611935677389
  0.0025015618433457  0.0052921975047298  0.4970857122691470
  0.1006983091660416  0.8631453212145530  0.6239147463015726
  0.1402675437385952  0.1050249766743789  0.3733831406193673
  0.8583222644852384  0.8998486113672257  0.3796113727972212
  0.8990388572440722  0.1383241238692534  0.6281573432566745
  0.8864694138814571  0.6101705693833708  0.1474980070075063
  0.9029944834322947  0.3729099693003377  0.8906847429523665
  0.1232891679239358  0.6452069208697111  0.8975522385528478
  0.1546673511914634  0.3843109748750209  0.1225389250707352
  0.6417984277035558  0.1149208564390349  0.8704061629891555
  0.6193095975957803  0.8634503724744675  0.1140396866594031
  0.3904397108014592  0.1140058655659004  0.1168017399438455
  0.3813352288919276  0.8808839573115321  0.8610635062938456
  0.6149550312117640  0.6481895836376097  0.3937707007860141
  0.6405913802092300  0.3824894721553633  0.6152792535049869
  0.3686157422552654  0.6070214522052382  0.6304659547148219
  0.3934967034334207  0.3797276998066224  0.3691268627989288
  0.7342999392588396  0.7441587553621858  0.7477091672920864
  0.7626287290883269  0.2510290381154761  0.2426535492249400
  0.2478933820439337  0.7575151057586140  0.2545819354505596
  0.2601097421629248  0.2480902036591672  0.7401818988467781
  0.0006792457546041  0.9971081524704317  0.0184543381934930
  0.0023439571238626  0.5018625801832286  0.5285266644828752
  0.5063259658600074  0.0116035680825064  0.5163636582755160
  0.5294118427134009  0.4924319367395711  0.0154666468504558
 
  0.00000000E+00  0.00000000E+00  0.00000000E+00
  0.00000000E+00  0.00000000E+00  0.00000000E+00
  0.00000000E+00  0.00000000E+00  0.00000000E+00
  0.00000000E+00  0.00000000E+00  0.00000000E+00
  0.00000000E+00  0.00000000E+00  0.00000000E+00
  0.00000000E+00  0.00000000E+00  0.00000000E+00
  0.00000000E+00  0.00000000E+00  0.00000000E+00
  0.00000000E+00  0.00000000E+00  0.00000000E+00
  0.00000000E+00  0.00000000E+00  0.00000000E+00
  0.00000000E+00  0.00000000E+00  0.00000000E+00
  0.00000000E+00  0.00000000E+00  0.00000000E+00
  0.00000000E+00  0.00000000E+00  0.00000000E+00
  0.00000000E+00  0.00000000E+00  0.00000000E+00
  0.00000000E+00  0.00000000E+00  0.00000000E+00
  0.00000000E+00  0.00000000E+00  0.00000000E+00
  0.00000000E+00  0.00000000E+00  0.00000000E+00
  0.00000000E+00  0.00000000E+00  0.00000000E+00
  0.00000000E+00  0.00000000E+00  0.00000000E+00
  0.00000000E+00  0.00000000E+00  0.00000000E+00
  0.00000000E+00  0.00000000E+00  0.00000000E+00
  0.00000000E+00  0.00000000E+00  0.00000000E+00
  0.00000000E+00  0.00000000E+00  0.00000000E+00
  0.00000000E+00  0.00000000E+00  0.00000000E+00
  0.00000000E+00  0.00000000E+00  0.00000000E+00
  0.00000000E+00  0.00000000E+00  0.00000000E+00
  0.00000000E+00  0.00000000E+00  0.00000000E+00
  0.00000000E+00  0.00000000E+00  0.00000000E+00
  0.00000000E+00  0.00000000E+00  0.00000000E+00
  0.00000000E+00  0.00000000E+00  0.00000000E+00
  0.00000000E+00  0.00000000E+00  0.00000000E+00
  0.00000000E+00  0.00000000E+00  0.00000000E+00
  0.00000000E+00  0.00000000E+00  0.00000000E+00
  0.00000000E+00  0.00000000E+00  0.00000000E+00
  0.00000000E+00  0.00000000E+00  0.00000000E+00
  0.00000000E+00  0.00000000E+00  0.00000000E+00
  0.00000000E+00  0.00000000E+00  0.00000000E+00
  0.00000000E+00  0.00000000E+00  0.00000000E+00
  0.00000000E+00  0.00000000E+00  0.00000000E+00
  0.00000000E+00  0.00000000E+00  0.00000000E+00
  0.00000000E+00  0.00000000E+00  0.00000000E+00
  0.00000000E+00  0.00000000E+00  0.00000000E+00
  0.00000000E+00  0.00000000E+00  0.00000000E+00
  0.00000000E+00  0.00000000E+00  0.00000000E+00
  0.00000000E+00  0.00000000E+00  0.00000000E+00
  0.00000000E+00  0.00000000E+00  0.00000000E+00
  0.00000000E+00  0.00000000E+00  0.00000000E+00
  0.00000000E+00  0.00000000E+00  0.00000000E+00
  0.00000000E+00  0.00000000E+00  0.00000000E+00
  0.00000000E+00  0.00000000E+00  0.00000000E+00
  0.00000000E+00  0.00000000E+00  0.00000000E+00
  0.00000000E+00  0.00000000E+00  0.00000000E+00
  0.00000000E+00  0.00000000E+00  0.00000000E+00
