Li24 P4 S20 Cl4                         
   1.00000000000000     
     9.6601830968599884    0.0000000000000000    0.0000000000000000
     0.0000000000000000    9.6601830968599884    0.0000000000000000
     0.0000000000000000    0.0000000000000000    9.6601830968599884
   Li   P    S    Cl
    24     4    20     4
Direct
  0.9558049714662615  0.1616977869047265  0.1856556475446269
  0.9855194798349721  0.7963058299530221  0.7866778904183839
  0.0315358848284665  0.1632333802910770  0.8229872044251708
  0.0127777432973176  0.7946744351833203  0.2055263109972544
  0.2716565053499513  0.2960500827836298  0.9822099458757686
  0.2083717767644105  0.8297567015862257  0.0160942167077063
  0.7064685908799351  0.3275204666834301  0.0270669817355322
  0.7902046901492999  0.8372286229578741  0.9739693463956525
  0.3067011591721860  0.9718113337112201  0.3281252296904185
  0.3161209957354926  0.0102575243105139  0.7016279048377539
  0.6604873012745835  0.9705972385443221  0.6862840036172351
  0.6680972487873095  0.0517232904236574  0.3397024522253809
  0.1917342318319418  0.6705251106541527  0.4594733970486675
  0.3134742954186466  0.2179194139299797  0.5218122176898385
  0.8055758807204069  0.7232511437669032  0.5219032134687421
  0.8299294331761916  0.2966352397894589  0.4841891923874878
  0.1715176508970107  0.4579843015906384  0.6896119650475306
  0.2789788046307965  0.5322935795838271  0.1721388417553857
  0.8093690494974072  0.4937217712126188  0.2975296782448526
  0.8043964221862805  0.5247742275514791  0.7068275392685303
  0.4746991835337624  0.3120745722375557  0.7946243703830158
  0.4790603621553808  0.7224866075925879  0.2031308126644311
  0.5128852753915054  0.3018139188398387  0.2245823856137806
  0.5367871451646120  0.6650934236399964  0.8267658322109126
  0.4972573084892644  0.5130994347733719  0.5032591288725359
  0.5033643581001435  0.0117290004263356  0.0087142931208095
  0.9954810395582739  0.5017055364479444  0.9988294603764772
  0.0011851210870630  0.0053323454999893  0.5017086762494660
  0.1297401349757925  0.8711713865228810  0.6054827702963965
  0.1171930289090162  0.1375219841935166  0.3839584386199504
  0.8705087665150312  0.9003603906449176  0.3702945864956436
  0.8750250337043701  0.1094989211470070  0.6370944509390370
  0.8590643596721346  0.6282679292673069  0.1020346996010632
  0.8897517869204461  0.3696897789922569  0.8702169549656102
  0.1335693130975913  0.6170560152683737  0.8855983241533052
  0.0975268882790725  0.3768998537891176  0.1373792461239857
  0.6256647948042237  0.1333290016151322  0.8856638189268562
  0.6266667852347768  0.9017619825017920  0.1417019983546255
  0.3659372026272493  0.1218060389923008  0.1274742627984145
  0.4034541024797081  0.8721574838267024  0.8817859093859836
  0.6193514127244564  0.6379749037467469  0.3830479428883985
  0.6219457252095865  0.3804428551561948  0.6135383726839033
  0.3728769550568674  0.6201823732129353  0.6374034123811775
  0.3586542950081091  0.4080504125351838  0.3787900984622306
  0.7514397586968656  0.7532026286141614  0.7522809868007077
  0.7466007261375726  0.2650661962818542  0.2570981241606333
  0.2453989478307217  0.7564832310248724  0.2410603514272012
  0.2501617553892307  0.2384464851269409  0.7526637347607074
  0.0029427816871069  0.9729038922133719  0.9959774832378478
  0.9702388278319338  0.5190356306959053  0.5090899856653440
  0.4800657834012585  0.0252123718858288  0.5060402917006079
  0.4817893944275712  0.4721819318746616  0.0109445962973058
 
  0.00000000E+00  0.00000000E+00  0.00000000E+00
  0.00000000E+00  0.00000000E+00  0.00000000E+00
  0.00000000E+00  0.00000000E+00  0.00000000E+00
  0.00000000E+00  0.00000000E+00  0.00000000E+00
  0.00000000E+00  0.00000000E+00  0.00000000E+00
  0.00000000E+00  0.00000000E+00  0.00000000E+00
  0.00000000E+00  0.00000000E+00  0.00000000E+00
  0.00000000E+00  0.00000000E+00  0.00000000E+00
  0.00000000E+00  0.00000000E+00  0.00000000E+00
  0.00000000E+00  0.00000000E+00  0.00000000E+00
  0.00000000E+00  0.00000000E+00  0.00000000E+00
  0.00000000E+00  0.00000000E+00  0.00000000E+00
  0.00000000E+00  0.00000000E+00  0.00000000E+00
  0.00000000E+00  0.00000000E+00  0.00000000E+00
  0.00000000E+00  0.00000000E+00  0.00000000E+00
  0.00000000E+00  0.00000000E+00  0.00000000E+00
  0.00000000E+00  0.00000000E+00  0.00000000E+00
  0.00000000E+00  0.00000000E+00  0.00000000E+00
  0.00000000E+00  0.00000000E+00  0.00000000E+00
  0.00000000E+00  0.00000000E+00  0.00000000E+00
  0.00000000E+00  0.00000000E+00  0.00000000E+00
  0.00000000E+00  0.00000000E+00  0.00000000E+00
  0.00000000E+00  0.00000000E+00  0.00000000E+00
  0.00000000E+00  0.00000000E+00  0.00000000E+00
  0.00000000E+00  0.00000000E+00  0.00000000E+00
  0.00000000E+00  0.00000000E+00  0.00000000E+00
  0.00000000E+00  0.00000000E+00  0.00000000E+00
  0.00000000E+00  0.00000000E+00  0.00000000E+00
  0.00000000E+00  0.00000000E+00  0.00000000E+00
  0.00000000E+00  0.00000000E+00  0.00000000E+00
  0.00000000E+00  0.00000000E+00  0.00000000E+00
  0.00000000E+00  0.00000000E+00  0.00000000E+00
  0.00000000E+00  0.00000000E+00  0.00000000E+00
  0.00000000E+00  0.00000000E+00  0.00000000E+00
  0.00000000E+00  0.00000000E+00  0.00000000E+00
  0.00000000E+00  0.00000000E+00  0.00000000E+00
  0.00000000E+00  0.00000000E+00  0.00000000E+00
  0.00000000E+00  0.00000000E+00  0.00000000E+00
  0.00000000E+00  0.00000000E+00  0.00000000E+00
  0.00000000E+00  0.00000000E+00  0.00000000E+00
  0.00000000E+00  0.00000000E+00  0.00000000E+00
  0.00000000E+00  0.00000000E+00  0.00000000E+00
  0.00000000E+00  0.00000000E+00  0.00000000E+00
  0.00000000E+00  0.00000000E+00  0.00000000E+00
  0.00000000E+00  0.00000000E+00  0.00000000E+00
  0.00000000E+00  0.00000000E+00  0.00000000E+00
  0.00000000E+00  0.00000000E+00  0.00000000E+00
  0.00000000E+00  0.00000000E+00  0.00000000E+00
  0.00000000E+00  0.00000000E+00  0.00000000E+00
  0.00000000E+00  0.00000000E+00  0.00000000E+00
  0.00000000E+00  0.00000000E+00  0.00000000E+00
  0.00000000E+00  0.00000000E+00  0.00000000E+00
