Li24 P4 S20 Cl4                         
   1.00000000000000     
     9.6601830968599884    0.0000000000000000    0.0000000000000000
     0.0000000000000000    9.6601830968599884    0.0000000000000000
     0.0000000000000000    0.0000000000000000    9.6601830968599884
   Li   P    S    Cl
    24     4    20     4
Direct
  0.9558041309530978  0.1617157633410571  0.1856572606406957
  0.9855161165041295  0.7963025819728742  0.7866726660830139
  0.0315410674952474  0.1632373701800205  0.8229834514282430
  0.0127730678446767  0.7946851115544078  0.2055252283014823
  0.2716599870536029  0.2960490136950824  0.9822066542357248
  0.2083760517698821  0.8297440798946027  0.0160982096124940
  0.7064701974567669  0.3275090924270643  0.0270692899594707
  0.7902009696015213  0.8372156650274292  0.9739680760680045
  0.3066945409188051  0.9718083551928984  0.3281208692440245
  0.3161222905268204  0.0102601771895223  0.7016342045908317
  0.6605005194713627  0.9705945969085690  0.6862807303997656
  0.6680994171208852  0.0517275513404343  0.3396896830711000
  0.1917236418646198  0.6705409899443993  0.4594735604762619
  0.3134629910926776  0.2179184197624835  0.5218158271291315
  0.8055671341600430  0.7232488834046009  0.5219075566963696
  0.8299040378645017  0.2966309154688531  0.4841911320602321
  0.1715295832119068  0.4579780577044659  0.6896164291189493
  0.2789763924285467  0.5322925160374865  0.1721550639878657
  0.8093702040202118  0.4937156004907521  0.2975203412478749
  0.8043981758496415  0.5247793046893108  0.7068364131648437
  0.4746985246470601  0.3120597024898544  0.7946200638593695
  0.4790562817761739  0.7225147026336955  0.2031574136367880
  0.5128892196957864  0.3018127659737289  0.2245819901614539
  0.5367886416459982  0.6650994352620927  0.8267548167585304
  0.4972541382705771  0.5130963381996381  0.5032591620134070
  0.5033728781425424  0.0117253928269392  0.0086951586994530
  0.9954930968461184  0.5017146589075452  0.9988263313839028
  0.0011774784460030  0.0053397055319024  0.5017144216015978
  0.1297127041209620  0.8712006873805151  0.6054752713480624
  0.1171746249027592  0.1374894805640565  0.3839714693636864
  0.8705207990490962  0.9003681838321782  0.3703227240604292
  0.8750465582558462  0.1094969307221803  0.6370726447868691
  0.8590981289302704  0.6282561648393568  0.1020296710020077
  0.8897708591349982  0.3697217012746066  0.8702518018523904
  0.1335336984092450  0.6170402880282850  0.8856045952942821
  0.0975384229253748  0.3769177221354738  0.1373567238480078
  0.6256430169715230  0.1333077888497414  0.8856723748708930
  0.6266566046442037  0.9017712296930256  0.1416788177582760
  0.3659708414254439  0.1217914812933145  0.1274491441717416
  0.4034616197283611  0.8721743701606073  0.8818040464337500
  0.6193346451306212  0.6379468298856352  0.3830604502240860
  0.6219269022585010  0.3804764648513270  0.6135395305256992
  0.3728875678511585  0.6201669898852629  0.6373675654365556
  0.3586865413280051  0.4080490227223521  0.3788087844210040
  0.7514437665521001  0.7532062324110669  0.7522803406019065
  0.7466006206682465  0.2650671594526699  0.2570976437521040
  0.2453929940123132  0.7564765695208351  0.2410580394713406
  0.2501679141859654  0.2384485866364088  0.7526657651825133
  0.0029447774751574  0.9728931199671820  0.9959779336991659
  0.9702285217829782  0.5190402635928137  0.5090945547948280
  0.4800603546177413  0.0252164802877672  0.5060382422639051
  0.4817872089594886  0.4721595039612865  0.0109388392058989
 
  0.00000000E+00  0.00000000E+00  0.00000000E+00
  0.00000000E+00  0.00000000E+00  0.00000000E+00
  0.00000000E+00  0.00000000E+00  0.00000000E+00
  0.00000000E+00  0.00000000E+00  0.00000000E+00
  0.00000000E+00  0.00000000E+00  0.00000000E+00
  0.00000000E+00  0.00000000E+00  0.00000000E+00
  0.00000000E+00  0.00000000E+00  0.00000000E+00
  0.00000000E+00  0.00000000E+00  0.00000000E+00
  0.00000000E+00  0.00000000E+00  0.00000000E+00
  0.00000000E+00  0.00000000E+00  0.00000000E+00
  0.00000000E+00  0.00000000E+00  0.00000000E+00
  0.00000000E+00  0.00000000E+00  0.00000000E+00
  0.00000000E+00  0.00000000E+00  0.00000000E+00
  0.00000000E+00  0.00000000E+00  0.00000000E+00
  0.00000000E+00  0.00000000E+00  0.00000000E+00
  0.00000000E+00  0.00000000E+00  0.00000000E+00
  0.00000000E+00  0.00000000E+00  0.00000000E+00
  0.00000000E+00  0.00000000E+00  0.00000000E+00
  0.00000000E+00  0.00000000E+00  0.00000000E+00
  0.00000000E+00  0.00000000E+00  0.00000000E+00
  0.00000000E+00  0.00000000E+00  0.00000000E+00
  0.00000000E+00  0.00000000E+00  0.00000000E+00
  0.00000000E+00  0.00000000E+00  0.00000000E+00
  0.00000000E+00  0.00000000E+00  0.00000000E+00
  0.00000000E+00  0.00000000E+00  0.00000000E+00
  0.00000000E+00  0.00000000E+00  0.00000000E+00
  0.00000000E+00  0.00000000E+00  0.00000000E+00
  0.00000000E+00  0.00000000E+00  0.00000000E+00
  0.00000000E+00  0.00000000E+00  0.00000000E+00
  0.00000000E+00  0.00000000E+00  0.00000000E+00
  0.00000000E+00  0.00000000E+00  0.00000000E+00
  0.00000000E+00  0.00000000E+00  0.00000000E+00
  0.00000000E+00  0.00000000E+00  0.00000000E+00
  0.00000000E+00  0.00000000E+00  0.00000000E+00
  0.00000000E+00  0.00000000E+00  0.00000000E+00
  0.00000000E+00  0.00000000E+00  0.00000000E+00
  0.00000000E+00  0.00000000E+00  0.00000000E+00
  0.00000000E+00  0.00000000E+00  0.00000000E+00
  0.00000000E+00  0.00000000E+00  0.00000000E+00
  0.00000000E+00  0.00000000E+00  0.00000000E+00
  0.00000000E+00  0.00000000E+00  0.00000000E+00
  0.00000000E+00  0.00000000E+00  0.00000000E+00
  0.00000000E+00  0.00000000E+00  0.00000000E+00
  0.00000000E+00  0.00000000E+00  0.00000000E+00
  0.00000000E+00  0.00000000E+00  0.00000000E+00
  0.00000000E+00  0.00000000E+00  0.00000000E+00
  0.00000000E+00  0.00000000E+00  0.00000000E+00
  0.00000000E+00  0.00000000E+00  0.00000000E+00
  0.00000000E+00  0.00000000E+00  0.00000000E+00
  0.00000000E+00  0.00000000E+00  0.00000000E+00
  0.00000000E+00  0.00000000E+00  0.00000000E+00
  0.00000000E+00  0.00000000E+00  0.00000000E+00
