Li24 P4 S20 Cl4                         
   1.00000000000000     
     9.6534726701273925    0.0000000000000000    0.0000000000000000
     0.0000000000000000    9.6534726701273925    0.0000000000000000
     0.0000000000000000    0.0000000000000000    9.6534726701273925
   Li   P    S    Cl
    24     4    20     4
Direct
  0.9623234854561976  0.3304253153248701  0.3136766492423552
  0.9628646517318381  0.8441721520116918  0.8139264710520262
  0.0175650761320321  0.2716530938599945  0.7071976537945239
  0.0232310569301506  0.7708758336626722  0.1664512154059206
  0.4687640132416946  0.3178231189715767  0.8393704092913225
  0.3108159605527331  0.7122109538277487  0.0146222195454620
  0.8295304576407527  0.1918145522621804  0.0312074905483649
  0.7049815673649181  0.6919274109969892  0.9887456415173429
  0.2074959285978696  0.9701219292759973  0.2117041089034477
  0.1764286718087561  0.1671089845797170  0.9592901098597296
  0.6629593629348719  0.9642357230632895  0.7214374089277736
  0.8100443964717682  0.9990143710698224  0.2223166653145830
  0.1469296066371551  0.6819773620532060  0.4576731991400635
  0.2192461013981328  0.2934788439603691  0.5146084590335605
  0.7092107345029028  0.7835023068603167  0.5234536410973759
  0.7153968869253788  0.2022343523439855  0.4947002176435130
  0.2113177159028290  0.4867159507527981  0.7295308500838893
  0.3078278750934619  0.5056247270580959  0.1947116611910999
  0.6564123546827288  0.4381135815031719  0.1861721153428983
  0.8217492430052754  0.5291014946728205  0.6761257615751670
  0.3298352150975581  0.0338218359335531  0.6632179549276590
  0.4612360536391192  0.7965562582604244  0.3335262268103913
  0.5263700427896019  0.1475625298920613  0.3000645460046999
  0.5200977686223456  0.6734151478614477  0.7824204445805946
  0.5025662682178829  0.4897463057428593  0.4972646461755840
  0.5036314139568865  0.9989335050718411  0.0016557583354362
  0.9950302424757128  0.4909017317918663  0.0041523257537204
  0.0074866768885661  0.9829177458827489  0.5076174374748282
  0.1395947730597355  0.8713310361640790  0.6290520782958214
  0.1116809789026521  0.1188301046648447  0.3820397038017403
  0.9023651197375419  0.8422124539254587  0.3860528994700501
  0.8755934325774899  0.0871447084680917  0.6395715833897750
  0.8666512316372911  0.5868154568091459  0.1440436718673761
  0.8724743100726406  0.3765389204216313  0.8738470653499992
  0.1048915367650417  0.6356928811600284  0.8926612060853181
  0.1206329097555352  0.3599671129206330  0.1146847783050637
  0.6307743466626418  0.1301622452880671  0.8940049036099853
  0.6116406683621913  0.8725151951810712  0.1346856343763770
  0.3704091194900538  0.1218091761843299  0.1129869847932458
  0.3929515026934623  0.8836413323821390  0.8607755255750588
  0.6282064848191967  0.6080356303041191  0.3739070409213401
  0.6177940146748547  0.3808247789789254  0.6383637652293601
  0.3684356736501296  0.6222784956210400  0.5964212901647311
  0.3984563036046081  0.3565556369949556  0.3674020458949150
  0.7476857305968750  0.7428778423211810  0.7569905611154387
  0.7507933167795293  0.2275253551850708  0.2589756181789487
  0.2477834008113480  0.7363527369035187  0.2429053944013185
  0.2529443378329111  0.2505327282578106  0.7468978690846790
  0.9958092579020708  0.9890872590981782  0.0303641465016564
  0.0219103492728681  0.4643525949724132  0.5263734967486904
  0.5297435845713780  0.9880566880237813  0.5019839706021194
  0.4900707770688600  0.5234687212210068  0.9956177476636682
 
  0.00000000E+00  0.00000000E+00  0.00000000E+00
  0.00000000E+00  0.00000000E+00  0.00000000E+00
  0.00000000E+00  0.00000000E+00  0.00000000E+00
  0.00000000E+00  0.00000000E+00  0.00000000E+00
  0.00000000E+00  0.00000000E+00  0.00000000E+00
  0.00000000E+00  0.00000000E+00  0.00000000E+00
  0.00000000E+00  0.00000000E+00  0.00000000E+00
  0.00000000E+00  0.00000000E+00  0.00000000E+00
  0.00000000E+00  0.00000000E+00  0.00000000E+00
  0.00000000E+00  0.00000000E+00  0.00000000E+00
  0.00000000E+00  0.00000000E+00  0.00000000E+00
  0.00000000E+00  0.00000000E+00  0.00000000E+00
  0.00000000E+00  0.00000000E+00  0.00000000E+00
  0.00000000E+00  0.00000000E+00  0.00000000E+00
  0.00000000E+00  0.00000000E+00  0.00000000E+00
  0.00000000E+00  0.00000000E+00  0.00000000E+00
  0.00000000E+00  0.00000000E+00  0.00000000E+00
  0.00000000E+00  0.00000000E+00  0.00000000E+00
  0.00000000E+00  0.00000000E+00  0.00000000E+00
  0.00000000E+00  0.00000000E+00  0.00000000E+00
  0.00000000E+00  0.00000000E+00  0.00000000E+00
  0.00000000E+00  0.00000000E+00  0.00000000E+00
  0.00000000E+00  0.00000000E+00  0.00000000E+00
  0.00000000E+00  0.00000000E+00  0.00000000E+00
  0.00000000E+00  0.00000000E+00  0.00000000E+00
  0.00000000E+00  0.00000000E+00  0.00000000E+00
  0.00000000E+00  0.00000000E+00  0.00000000E+00
  0.00000000E+00  0.00000000E+00  0.00000000E+00
  0.00000000E+00  0.00000000E+00  0.00000000E+00
  0.00000000E+00  0.00000000E+00  0.00000000E+00
  0.00000000E+00  0.00000000E+00  0.00000000E+00
  0.00000000E+00  0.00000000E+00  0.00000000E+00
  0.00000000E+00  0.00000000E+00  0.00000000E+00
  0.00000000E+00  0.00000000E+00  0.00000000E+00
  0.00000000E+00  0.00000000E+00  0.00000000E+00
  0.00000000E+00  0.00000000E+00  0.00000000E+00
  0.00000000E+00  0.00000000E+00  0.00000000E+00
  0.00000000E+00  0.00000000E+00  0.00000000E+00
  0.00000000E+00  0.00000000E+00  0.00000000E+00
  0.00000000E+00  0.00000000E+00  0.00000000E+00
  0.00000000E+00  0.00000000E+00  0.00000000E+00
  0.00000000E+00  0.00000000E+00  0.00000000E+00
  0.00000000E+00  0.00000000E+00  0.00000000E+00
  0.00000000E+00  0.00000000E+00  0.00000000E+00
  0.00000000E+00  0.00000000E+00  0.00000000E+00
  0.00000000E+00  0.00000000E+00  0.00000000E+00
  0.00000000E+00  0.00000000E+00  0.00000000E+00
  0.00000000E+00  0.00000000E+00  0.00000000E+00
  0.00000000E+00  0.00000000E+00  0.00000000E+00
  0.00000000E+00  0.00000000E+00  0.00000000E+00
  0.00000000E+00  0.00000000E+00  0.00000000E+00
  0.00000000E+00  0.00000000E+00  0.00000000E+00
