Generated by IonExplorer 2.0
1.0
       10.2794980000        0.0000000000        0.0000000000
        0.0000000000       10.2794980000        0.0000000000
        0.0000000000        0.0000000000       10.2794980000
   Li    P    S   Cl
   29    4   20    4
Direct
    0.3865550000    0.0000000000    0.1134450000
    0.3403350000    0.5000000000    0.1134450000
    0.3403350000    0.0000000000    0.6134450000
    0.6134450000    0.0000000000    0.3403350000
    0.1134450000    0.5000000000    0.3403350000
    0.1134450000    0.0000000000    0.3865550000
    0.6134450000    0.2731100000    0.6134450000
    0.6134450000    0.2268900000    0.1134450000
    0.1134450000    0.2731100000    0.1134450000
    0.1134450000    0.2268900000    0.6134450000
    0.6134450000    0.0000000000    0.8865550000
    0.6134450000    0.5000000000    0.8403350000
    0.1134450000    0.0000000000    0.8403350000
    0.1134450000    0.5000000000    0.8865550000
    0.6134450000    0.7731100000    0.1134450000
    0.6134450000    0.7268900000    0.6134450000
    0.1134450000    0.7731100000    0.6134450000
    0.1134450000    0.7268900000    0.1134450000
    0.8865550000    0.5000000000    0.1134450000
    0.8865550000    0.0000000000    0.6134450000
    0.8403350000    0.5000000000    0.6134450000
    0.8403350000    0.0000000000    0.1134450000
    0.3803765830    0.5027087936    0.6138962411
    0.3840010500    0.4297499600    0.5234228900
    0.4124496800    0.4487991000    0.4776965300
    0.4402237800    0.4585462800    0.4402237800
    0.4776965300    0.4487991000    0.4124496800
    0.5234228900    0.4297499600    0.3840010500
    0.6138962411    0.5027087936    0.3803765830
    0.8634450000    0.7500000000    0.8634450000
    0.8634450000    0.2500000000    0.3634450000
    0.3634450000    0.7500000000    0.3634450000
    0.3634450000    0.2500000000    0.8634450000
    0.9789650000    0.8655200000    0.9789650000
    0.9789650000    0.6344800000    0.7479250000
    0.7479250000    0.8655200000    0.7479250000
    0.7479250000    0.6344800000    0.9789650000
    0.9789650000    0.3655200000    0.4789650000
    0.9789650000    0.1344800000    0.2479250000
    0.7479250000    0.3655200000    0.2479250000
    0.7479250000    0.1344800000    0.4789650000
    0.4789650000    0.8655200000    0.4789650000
    0.4789650000    0.6344800000    0.2479250000
    0.2479250000    0.8655200000    0.2479250000
    0.2479250000    0.6344800000    0.4789650000
    0.4789650000    0.3655200000    0.9789650000
    0.4789650000    0.1344800000    0.7479250000
    0.2479250000    0.3655200000    0.7479250000
    0.2479250000    0.1344800000    0.9789650000
    0.6134450000    0.5000000000    0.6134450000
    0.6134450000    0.0000000000    0.1134450000
    0.1134450000    0.5000000000    0.1134450000
    0.1134450000    0.0000000000    0.6134450000
    0.3634450000    0.2500000000    0.3634450000
    0.3634450000    0.7500000000    0.8634450000
    0.8634450000    0.2500000000    0.8634450000
    0.8634450000    0.7500000000    0.3634450000
