Li24 P4 S20 Cl4                         
   1.00000000000000     
     9.6342552308519878    0.0000000000000000    0.0000000000000000
     0.0000000000000000    9.6342552308519878    0.0000000000000000
     0.0000000000000000    0.0000000000000000    9.6342552308519878
   Li   P    S    Cl
    24     4    20     4
Direct
  0.9503896403289199  0.3403747151922722  0.3223154004876596
  0.9786220399097635  0.6978850944087513  0.7038432134772371
  0.1508905648053285  0.2167036532460747  0.9690699362321401
  0.0039226443779408  0.7090753156780422  0.2853032138822274
  0.0318529331800786  0.3342730118228592  0.6733348225149105
  0.1810966128723391  0.7898880084100860  0.0141990633438686
  0.6810982657677385  0.2898870478095055  0.0141989919825411
  0.6508881912500528  0.7167033995683061  0.9690692179372126
  0.1885877857401768  0.9880373234478688  0.2038513512994575
  0.1995875252975207  0.0132921825619209  0.7852645355732810
  0.8310011933187950  0.9597647669752055  0.8223068942658286
  0.8248724523076888  0.0412196615742805  0.1733126529151917
  0.2072830015544833  0.6602399508180909  0.4690381116484786
  0.2804748284537364  0.1904333976635812  0.5142007519350313
  0.7804740034654596  0.6904305511934496  0.5142008329728638
  0.7072838360006096  0.1602393817388431  0.4690385380396534
  0.3310013666977383  0.4597655868743550  0.8223054871167647
  0.3248712211128021  0.5412199424251287  0.1733108172404400
  0.6885886848013473  0.4880372788083484  0.2038520438054638
  0.6995858940106570  0.5132918868156312  0.7852656464891346
  0.4786232986942498  0.1978869231310130  0.7038432227600161
  0.4503890029774079  0.8403760375691043  0.3223145707640986
  0.5039234011012791  0.2090761690437473  0.2853034523514398
  0.5318533841420201  0.8342751520651893  0.6733341995178113
  0.4917967260457409  0.5008057465443245  0.4983330537109786
  0.4914127728007833  0.0013003463677860  0.9983331951235995
  0.9914126101473902  0.5013011095838792  0.9983329211752688
  0.9917972408069027  0.0008049584962693  0.4983328438532474
  0.1268739119226469  0.8717559118950303  0.6004645871721785
  0.0944560556282210  0.1365105087600316  0.3690213688185243
  0.8549765588960103  0.8896305862256425  0.3786502073691484
  0.8861575377222437  0.1222668200309284  0.6371022145068510
  0.8623938412079369  0.6363723627535693  0.1005015105453277
  0.8802315209646713  0.3644882272165657  0.8786373426652939
  0.1271591220413376  0.6038982470450430  0.8690268740626499
  0.1128402088617333  0.3955979147442654  0.1370974348534804
  0.6271585858866507  0.1038976817447316  0.8690267794105984
  0.6128411765418277  0.8955978354054046  0.1370974828998402
  0.3623944734796936  0.1363715183302077  0.1005023008928555
  0.3802313830533426  0.8644871075516927  0.8786378778195366
  0.5944548922190191  0.6365110817264313  0.3690207934771639
  0.6268746100365123  0.3717571927264001  0.6004636133480497
  0.3861568348183683  0.6222683312288081  0.6371020315644857
  0.3549769916901345  0.3896316131914829  0.3786492517148052
  0.7476409515473161  0.7455726488780007  0.7458485654311987
  0.7362004381059956  0.2570286975722107  0.2458383835390115
  0.2361996754205998  0.7570288826773616  0.2458380854036639
  0.2476418379229255  0.2455730528593041  0.7458487798726624
  0.0235535495661780  0.9951535002782547  0.9937972215940409
  0.9857201202281789  0.5328785634367983  0.4938438962052342
  0.4857202904821196  0.0328796654460412  0.4938440432857402
  0.5235535297876525  0.4951522184416942  0.9937975011320124
 
  0.00000000E+00  0.00000000E+00  0.00000000E+00
  0.00000000E+00  0.00000000E+00  0.00000000E+00
  0.00000000E+00  0.00000000E+00  0.00000000E+00
  0.00000000E+00  0.00000000E+00  0.00000000E+00
  0.00000000E+00  0.00000000E+00  0.00000000E+00
  0.00000000E+00  0.00000000E+00  0.00000000E+00
  0.00000000E+00  0.00000000E+00  0.00000000E+00
  0.00000000E+00  0.00000000E+00  0.00000000E+00
  0.00000000E+00  0.00000000E+00  0.00000000E+00
  0.00000000E+00  0.00000000E+00  0.00000000E+00
  0.00000000E+00  0.00000000E+00  0.00000000E+00
  0.00000000E+00  0.00000000E+00  0.00000000E+00
  0.00000000E+00  0.00000000E+00  0.00000000E+00
  0.00000000E+00  0.00000000E+00  0.00000000E+00
  0.00000000E+00  0.00000000E+00  0.00000000E+00
  0.00000000E+00  0.00000000E+00  0.00000000E+00
  0.00000000E+00  0.00000000E+00  0.00000000E+00
  0.00000000E+00  0.00000000E+00  0.00000000E+00
  0.00000000E+00  0.00000000E+00  0.00000000E+00
  0.00000000E+00  0.00000000E+00  0.00000000E+00
  0.00000000E+00  0.00000000E+00  0.00000000E+00
  0.00000000E+00  0.00000000E+00  0.00000000E+00
  0.00000000E+00  0.00000000E+00  0.00000000E+00
  0.00000000E+00  0.00000000E+00  0.00000000E+00
  0.00000000E+00  0.00000000E+00  0.00000000E+00
  0.00000000E+00  0.00000000E+00  0.00000000E+00
  0.00000000E+00  0.00000000E+00  0.00000000E+00
  0.00000000E+00  0.00000000E+00  0.00000000E+00
  0.00000000E+00  0.00000000E+00  0.00000000E+00
  0.00000000E+00  0.00000000E+00  0.00000000E+00
  0.00000000E+00  0.00000000E+00  0.00000000E+00
  0.00000000E+00  0.00000000E+00  0.00000000E+00
  0.00000000E+00  0.00000000E+00  0.00000000E+00
  0.00000000E+00  0.00000000E+00  0.00000000E+00
  0.00000000E+00  0.00000000E+00  0.00000000E+00
  0.00000000E+00  0.00000000E+00  0.00000000E+00
  0.00000000E+00  0.00000000E+00  0.00000000E+00
  0.00000000E+00  0.00000000E+00  0.00000000E+00
  0.00000000E+00  0.00000000E+00  0.00000000E+00
  0.00000000E+00  0.00000000E+00  0.00000000E+00
  0.00000000E+00  0.00000000E+00  0.00000000E+00
  0.00000000E+00  0.00000000E+00  0.00000000E+00
  0.00000000E+00  0.00000000E+00  0.00000000E+00
  0.00000000E+00  0.00000000E+00  0.00000000E+00
  0.00000000E+00  0.00000000E+00  0.00000000E+00
  0.00000000E+00  0.00000000E+00  0.00000000E+00
  0.00000000E+00  0.00000000E+00  0.00000000E+00
  0.00000000E+00  0.00000000E+00  0.00000000E+00
  0.00000000E+00  0.00000000E+00  0.00000000E+00
  0.00000000E+00  0.00000000E+00  0.00000000E+00
  0.00000000E+00  0.00000000E+00  0.00000000E+00
  0.00000000E+00  0.00000000E+00  0.00000000E+00
