Li24 P4 S20 Cl4                         
   1.00000000000000     
     9.7065407817930804    0.0000000000000000    0.0000000000000000
     0.0000000000000000    9.7065407817930804    0.0000000000000000
     0.0000000000000000    0.0000000000000000    9.7065407817930804
   Li   P    S    Cl
    24     4    20     4
Direct
  0.9645159511808125  0.3399795861367418  0.3399795861367561
  0.9641904260550780  0.8282200204921837  0.8282200204921837
  0.0225884047062897  0.1786909835147844  0.7803861198289089
  0.0225884047062897  0.7803861198289089  0.1786909835147772
  0.1951346804144737  0.2081164319118892  0.9830838030569854
  0.3127805911380261  0.7011754365445498  0.0190459702906711
  0.8020219713422335  0.2102314829234130  0.0247225883511875
  0.6793232128004962  0.6922614530852986  0.9718374009339060
  0.1951346804144737  0.9830838030569357  0.2081164319118608
  0.3127805911380261  0.0190459702906143  0.7011754365445498
  0.6793232128004962  0.9718374009339202  0.6922614530852986
  0.8020219713422335  0.0247225883512088  0.2102314829234485
  0.1590928781064592  0.6963277657628965  0.4623743213580876
  0.3049804783451440  0.2058529719355946  0.5245026499416732
  0.8073670647670946  0.7020801175113626  0.5171030626015259
  0.6758300232749629  0.2016147372079221  0.4779802202669095
  0.1590928781064450  0.4623743213580663  0.6963277657628965
  0.3049804783451369  0.5245026499416519  0.2058529719355875
  0.6758300232749629  0.4779802202668669  0.2016147372078937
  0.8073670647670946  0.5171030626015828  0.7020801175113626
  0.4615948362675321  0.3324936536126383  0.8362350647714447
  0.4615948362675321  0.8362350647714376  0.3324936536126241
  0.5245091023770304  0.2395796753170187  0.2395796753170044
  0.5196762631446260  0.7300348837977467  0.7300348837977467
  0.4895279076713652  0.5035107234897452  0.5035107234897310
  0.5032167795378396  0.9992424776531530  0.9992424776530819
  0.9979223095957971  0.4995695010597543  0.0035531949146479
  0.9979223095957971  0.0035531949146479  0.4995695010598041
  0.1154274755207115  0.8853009025447649  0.6291810038612750
  0.1149373266570532  0.1348313106014702  0.3832043146679237
  0.8904828628436260  0.8734260504734896  0.3710839572493099
  0.8623354386844825  0.1187714586108642  0.6145689966967572
  0.8623354386844825  0.6145689966967359  0.1187714586108500
  0.8904828628436260  0.3710839572493099  0.8734260504734683
  0.1154274755207186  0.6291810038612750  0.8853009025447649
  0.1149373266570674  0.3832043146678952  0.1348313106014560
  0.6191565954280398  0.1285706332646813  0.8801454157829562
  0.6191565954280469  0.8801454157829705  0.1285706332646742
  0.3713629756863215  0.1168278210741455  0.1168278210741312
  0.3867522957219168  0.8741959142358627  0.8741959142358556
  0.6079535603355436  0.6331423109854634  0.3858873208282376
  0.6079535603355507  0.3858873208282376  0.6331423109854349
  0.3482142387530107  0.6144306599170379  0.6144306599170237
  0.3801410304109334  0.3750652959966465  0.3750652959966820
  0.7507293567306094  0.7480806430970914  0.7480806430970914
  0.7530489410759136  0.2545090583169280  0.2545090583169138
  0.2486679849620805  0.7545038021849679  0.2450045259098682
  0.2486679849620805  0.2450045259099108  0.7545038021849679
  0.9960641216434315  0.0146776507829292  0.0146776507829860
  0.9839440781187501  0.5177685325794438  0.5177685325794011
  0.4918317748061159  0.0193299802986857  0.5151856499668087
  0.4918317748061159  0.5151856499668300  0.0193299802986715
 
  0.00000000E+00  0.00000000E+00  0.00000000E+00
  0.00000000E+00  0.00000000E+00  0.00000000E+00
  0.00000000E+00  0.00000000E+00  0.00000000E+00
  0.00000000E+00  0.00000000E+00  0.00000000E+00
  0.00000000E+00  0.00000000E+00  0.00000000E+00
  0.00000000E+00  0.00000000E+00  0.00000000E+00
  0.00000000E+00  0.00000000E+00  0.00000000E+00
  0.00000000E+00  0.00000000E+00  0.00000000E+00
  0.00000000E+00  0.00000000E+00  0.00000000E+00
  0.00000000E+00  0.00000000E+00  0.00000000E+00
  0.00000000E+00  0.00000000E+00  0.00000000E+00
  0.00000000E+00  0.00000000E+00  0.00000000E+00
  0.00000000E+00  0.00000000E+00  0.00000000E+00
  0.00000000E+00  0.00000000E+00  0.00000000E+00
  0.00000000E+00  0.00000000E+00  0.00000000E+00
  0.00000000E+00  0.00000000E+00  0.00000000E+00
  0.00000000E+00  0.00000000E+00  0.00000000E+00
  0.00000000E+00  0.00000000E+00  0.00000000E+00
  0.00000000E+00  0.00000000E+00  0.00000000E+00
  0.00000000E+00  0.00000000E+00  0.00000000E+00
  0.00000000E+00  0.00000000E+00  0.00000000E+00
  0.00000000E+00  0.00000000E+00  0.00000000E+00
  0.00000000E+00  0.00000000E+00  0.00000000E+00
  0.00000000E+00  0.00000000E+00  0.00000000E+00
  0.00000000E+00  0.00000000E+00  0.00000000E+00
  0.00000000E+00  0.00000000E+00  0.00000000E+00
  0.00000000E+00  0.00000000E+00  0.00000000E+00
  0.00000000E+00  0.00000000E+00  0.00000000E+00
  0.00000000E+00  0.00000000E+00  0.00000000E+00
  0.00000000E+00  0.00000000E+00  0.00000000E+00
  0.00000000E+00  0.00000000E+00  0.00000000E+00
  0.00000000E+00  0.00000000E+00  0.00000000E+00
  0.00000000E+00  0.00000000E+00  0.00000000E+00
  0.00000000E+00  0.00000000E+00  0.00000000E+00
  0.00000000E+00  0.00000000E+00  0.00000000E+00
  0.00000000E+00  0.00000000E+00  0.00000000E+00
  0.00000000E+00  0.00000000E+00  0.00000000E+00
  0.00000000E+00  0.00000000E+00  0.00000000E+00
  0.00000000E+00  0.00000000E+00  0.00000000E+00
  0.00000000E+00  0.00000000E+00  0.00000000E+00
  0.00000000E+00  0.00000000E+00  0.00000000E+00
  0.00000000E+00  0.00000000E+00  0.00000000E+00
  0.00000000E+00  0.00000000E+00  0.00000000E+00
  0.00000000E+00  0.00000000E+00  0.00000000E+00
  0.00000000E+00  0.00000000E+00  0.00000000E+00
  0.00000000E+00  0.00000000E+00  0.00000000E+00
  0.00000000E+00  0.00000000E+00  0.00000000E+00
  0.00000000E+00  0.00000000E+00  0.00000000E+00
  0.00000000E+00  0.00000000E+00  0.00000000E+00
  0.00000000E+00  0.00000000E+00  0.00000000E+00
  0.00000000E+00  0.00000000E+00  0.00000000E+00
  0.00000000E+00  0.00000000E+00  0.00000000E+00
