Li24 P4 S20 Cl4                         
   1.00000000000000     
     9.6768378670686896    0.0000000000000000    0.0000000000000000
     0.0000000000000000    9.6768378670686896    0.0000000000000000
     0.0000000000000000    0.0000000000000000    9.6768378670686896
   Li   P    S    Cl
    24     4    20     4
Direct
  0.9649843506996887  0.3355162313498229  0.3355162313498868
  0.9825340078426194  0.6738213551102589  0.6738213551102447
  0.0266727636430763  0.3285444575293919  0.7094295266765408
  0.0266727636430763  0.7094295266765124  0.3285444575294345
  0.3089056092262616  0.2808978507930741  0.9862141958569834
  0.1712670605192037  0.7976766778542771  0.0345187725315193
  0.6539990270722258  0.2648261556973184  0.0287537941705318
  0.8286996764561793  0.7835487792592779  0.9747083456691955
  0.3089056092262616  0.9862141958570403  0.2808978507931025
  0.1712670605192037  0.0345187725316472  0.7976766778543126
  0.8286996764561793  0.9747083456692026  0.7835487792592921
  0.6539990270722258  0.0287537941704466  0.2648261556974179
  0.3274614559335483  0.8068952520234897  0.4796344910732082
  0.2297570109216011  0.2988917045323383  0.5193715103082651
  0.6998915348743308  0.8181131072719097  0.5218917579449526
  0.6981412356527242  0.2129491772756798  0.4675961999042477
  0.3274614559335696  0.4796344910731797  0.8068952520234755
  0.2297570109216011  0.5193715103082296  0.2988917045324235
  0.6981412356527242  0.4675961999042974  0.2129491772756727
  0.6998915348743308  0.5218917579450307  0.8181131072719949
  0.4665942291131906  0.1735062378988199  0.6726433020638306
  0.4665942291131906  0.6726433020637951  0.1735062378987062
  0.9665076316391628  0.1426618873093889  0.1426618873095025
  0.5291021808543158  0.7608880336019402  0.7608880336020681
  0.5112884418632482  0.4993260427653644  0.4993260427653502
  0.5044875135690727  0.9858149493910945  0.9858149493911016
  0.0012103159737400  0.4859870797227685  0.0076619100680875
  0.0012103159737400  0.0076619100681159  0.4859870797226548
  0.1203107105525160  0.8788098314309843  0.6059915487322903
  0.1257147564065640  0.1298012424449910  0.3630759075387960
  0.8723387829848595  0.8960222586577657  0.3610369037761961
  0.8890803225461940  0.1379735316301272  0.6104283984800153
  0.8890803225461940  0.6104283984800153  0.1379735316302907
  0.8723387829848595  0.3610369037761321  0.8960222586578581
  0.1203107105525160  0.6059915487322477  0.8788098314310696
  0.1257147564065640  0.3630759075387818  0.1298012424450266
  0.6240026532914903  0.0967739948168859  0.8500529210068065
  0.6240026532914903  0.8500529210068705  0.0967739948168433
  0.4283449702892981  0.1255831896335657  0.1255831896335159
  0.3552204928653284  0.8795928890665002  0.8795928890665216
  0.6256210480512585  0.6300684848444840  0.3778848856054632
  0.6256210480512585  0.3778848856055129  0.6300684848445195
  0.3837221050098218  0.6205470370444435  0.6205470370443866
  0.4078595465494115  0.3692837450225355  0.3692837450225852
  0.7635903253430762  0.7435923367276873  0.7435923367277371
  0.7665916420377804  0.2420733405653480  0.2420733405654403
  0.2537809188463735  0.7532360733559276  0.2552623259240618
  0.2537809188463735  0.2552623259241044  0.7532360733558920
  0.9977377583533862  0.9723464947886640  0.9723464947885787
  0.0453920991064084  0.4956633174244370  0.4956633174244655
  0.5112297689736088  0.9960516948951949  0.4823888091326161
  0.5112297689736088  0.4823888091326516  0.9960516948951309
 
  0.00000000E+00  0.00000000E+00  0.00000000E+00
  0.00000000E+00  0.00000000E+00  0.00000000E+00
  0.00000000E+00  0.00000000E+00  0.00000000E+00
  0.00000000E+00  0.00000000E+00  0.00000000E+00
  0.00000000E+00  0.00000000E+00  0.00000000E+00
  0.00000000E+00  0.00000000E+00  0.00000000E+00
  0.00000000E+00  0.00000000E+00  0.00000000E+00
  0.00000000E+00  0.00000000E+00  0.00000000E+00
  0.00000000E+00  0.00000000E+00  0.00000000E+00
  0.00000000E+00  0.00000000E+00  0.00000000E+00
  0.00000000E+00  0.00000000E+00  0.00000000E+00
  0.00000000E+00  0.00000000E+00  0.00000000E+00
  0.00000000E+00  0.00000000E+00  0.00000000E+00
  0.00000000E+00  0.00000000E+00  0.00000000E+00
  0.00000000E+00  0.00000000E+00  0.00000000E+00
  0.00000000E+00  0.00000000E+00  0.00000000E+00
  0.00000000E+00  0.00000000E+00  0.00000000E+00
  0.00000000E+00  0.00000000E+00  0.00000000E+00
  0.00000000E+00  0.00000000E+00  0.00000000E+00
  0.00000000E+00  0.00000000E+00  0.00000000E+00
  0.00000000E+00  0.00000000E+00  0.00000000E+00
  0.00000000E+00  0.00000000E+00  0.00000000E+00
  0.00000000E+00  0.00000000E+00  0.00000000E+00
  0.00000000E+00  0.00000000E+00  0.00000000E+00
  0.00000000E+00  0.00000000E+00  0.00000000E+00
  0.00000000E+00  0.00000000E+00  0.00000000E+00
  0.00000000E+00  0.00000000E+00  0.00000000E+00
  0.00000000E+00  0.00000000E+00  0.00000000E+00
  0.00000000E+00  0.00000000E+00  0.00000000E+00
  0.00000000E+00  0.00000000E+00  0.00000000E+00
  0.00000000E+00  0.00000000E+00  0.00000000E+00
  0.00000000E+00  0.00000000E+00  0.00000000E+00
  0.00000000E+00  0.00000000E+00  0.00000000E+00
  0.00000000E+00  0.00000000E+00  0.00000000E+00
  0.00000000E+00  0.00000000E+00  0.00000000E+00
  0.00000000E+00  0.00000000E+00  0.00000000E+00
  0.00000000E+00  0.00000000E+00  0.00000000E+00
  0.00000000E+00  0.00000000E+00  0.00000000E+00
  0.00000000E+00  0.00000000E+00  0.00000000E+00
  0.00000000E+00  0.00000000E+00  0.00000000E+00
  0.00000000E+00  0.00000000E+00  0.00000000E+00
  0.00000000E+00  0.00000000E+00  0.00000000E+00
  0.00000000E+00  0.00000000E+00  0.00000000E+00
  0.00000000E+00  0.00000000E+00  0.00000000E+00
  0.00000000E+00  0.00000000E+00  0.00000000E+00
  0.00000000E+00  0.00000000E+00  0.00000000E+00
  0.00000000E+00  0.00000000E+00  0.00000000E+00
  0.00000000E+00  0.00000000E+00  0.00000000E+00
  0.00000000E+00  0.00000000E+00  0.00000000E+00
  0.00000000E+00  0.00000000E+00  0.00000000E+00
  0.00000000E+00  0.00000000E+00  0.00000000E+00
  0.00000000E+00  0.00000000E+00  0.00000000E+00
