Li24 P4 S20 Cl4                         
   1.00000000000000     
     9.6768378670686896    0.0000000000000000    0.0000000000000000
     0.0000000000000000    9.6768378670686896    0.0000000000000000
     0.0000000000000000    0.0000000000000000    9.6768378670686896
   Li   P    S    Cl
    24     4    20     4
Direct
  0.9649943048810741  0.3355088342136483  0.3355088342137122
  0.9825318018482889  0.6738163845963143  0.6738163845963001
  0.0266790032097788  0.3285476919091792  0.7094451698715076
  0.0266790032097788  0.7094451698714792  0.3285476919092218
  0.3088980238932635  0.2808906037546137  0.9862160083259752
  0.1712715024493647  0.7976747930202635  0.0345107331211025
  0.6539840001384434  0.2648377365547745  0.0287658654549148
  0.8286994846745799  0.7835497907209970  0.9747089037930863
  0.3088980238932635  0.9862160083260321  0.2808906037546421
  0.1712715024493647  0.0345107331212304  0.7976747930202990
  0.8286994846745799  0.9747089037930934  0.7835497907210112
  0.6539840001384434  0.0287658654548295  0.2648377365548740
  0.3274697622638811  0.8068971872523036  0.4796270181435531
  0.2297522847182165  0.2988908433094295  0.5193732271350129
  0.6998862649090611  0.8181117494671142  0.5218924744514766
  0.6981682433581256  0.2129651696070383  0.4676055126000946
  0.3274697622639025  0.4796270181435247  0.8068971872522894
  0.2297522847182165  0.5193732271349774  0.2988908433095148
  0.6981682433581256  0.4676055126001444  0.2129651696070312
  0.6998862649090611  0.5218924744515547  0.8181117494671994
  0.4665967384868779  0.1734947220536114  0.6726408286452994
  0.4665967384868779  0.6726408286452639  0.1734947220534977
  0.9664989082366233  0.1426571347376182  0.1426571347377319
  0.5290970099850085  0.7608783752208623  0.7608783752209902
  0.5112824589646578  0.4993229470812253  0.4993229470812111
  0.5044954866913187  0.9858159246967730  0.9858159246967801
  0.0012115853821797  0.4859874313798613  0.0076635953393165
  0.0012115853821797  0.0076635953393449  0.4859874313797476
  0.1203071932564370  0.8788083187598872  0.6059811541249402
  0.1257158857381810  0.1297956948455479  0.3630739890558061
  0.8723350149911724  0.8960234771631121  0.3610409026010544
  0.8890890086462804  0.1379728935981248  0.6104431034298869
  0.8890890086462804  0.6104431034298869  0.1379728935982882
  0.8723350149911724  0.3610409026009904  0.8960234771632045
  0.1203071932564370  0.6059811541248976  0.8788083187599725
  0.1257158857381810  0.3630739890557919  0.1297956948455834
  0.6240038328175714  0.0967798193253913  0.8500581547776491
  0.6240038328175714  0.8500581547777131  0.0967798193253486
  0.4283417287424172  0.1255825340184700  0.1255825340184202
  0.3552280606762608  0.8795939403754929  0.8795939403755142
  0.6256076770063217  0.6300725777594423  0.3778887732323355
  0.6256076770063217  0.3778887732323852  0.6300725777594778
  0.3837100486436498  0.6205434750442151  0.6205434750441583
  0.4078493240157712  0.3692845130198918  0.3692845130199416
  0.7635878375245113  0.7435927041529737  0.7435927041530235
  0.7665931605800225  0.2420807613046776  0.2420807613047700
  0.2537839684968048  0.7532353923000130  0.2552560892666591
  0.2537839684968048  0.2552560892667017  0.7532353922999775
  0.9977392463051373  0.9723341561057239  0.9723341561056387
  0.0453908832507253  0.4956566121438257  0.4956566121438541
  0.5112308094409812  0.9960440427914534  0.4823902125458233
  0.5112308094409812  0.4823902125458588  0.9960440427913895
 
  0.00000000E+00  0.00000000E+00  0.00000000E+00
  0.00000000E+00  0.00000000E+00  0.00000000E+00
  0.00000000E+00  0.00000000E+00  0.00000000E+00
  0.00000000E+00  0.00000000E+00  0.00000000E+00
  0.00000000E+00  0.00000000E+00  0.00000000E+00
  0.00000000E+00  0.00000000E+00  0.00000000E+00
  0.00000000E+00  0.00000000E+00  0.00000000E+00
  0.00000000E+00  0.00000000E+00  0.00000000E+00
  0.00000000E+00  0.00000000E+00  0.00000000E+00
  0.00000000E+00  0.00000000E+00  0.00000000E+00
  0.00000000E+00  0.00000000E+00  0.00000000E+00
  0.00000000E+00  0.00000000E+00  0.00000000E+00
  0.00000000E+00  0.00000000E+00  0.00000000E+00
  0.00000000E+00  0.00000000E+00  0.00000000E+00
  0.00000000E+00  0.00000000E+00  0.00000000E+00
  0.00000000E+00  0.00000000E+00  0.00000000E+00
  0.00000000E+00  0.00000000E+00  0.00000000E+00
  0.00000000E+00  0.00000000E+00  0.00000000E+00
  0.00000000E+00  0.00000000E+00  0.00000000E+00
  0.00000000E+00  0.00000000E+00  0.00000000E+00
  0.00000000E+00  0.00000000E+00  0.00000000E+00
  0.00000000E+00  0.00000000E+00  0.00000000E+00
  0.00000000E+00  0.00000000E+00  0.00000000E+00
  0.00000000E+00  0.00000000E+00  0.00000000E+00
  0.00000000E+00  0.00000000E+00  0.00000000E+00
  0.00000000E+00  0.00000000E+00  0.00000000E+00
  0.00000000E+00  0.00000000E+00  0.00000000E+00
  0.00000000E+00  0.00000000E+00  0.00000000E+00
  0.00000000E+00  0.00000000E+00  0.00000000E+00
  0.00000000E+00  0.00000000E+00  0.00000000E+00
  0.00000000E+00  0.00000000E+00  0.00000000E+00
  0.00000000E+00  0.00000000E+00  0.00000000E+00
  0.00000000E+00  0.00000000E+00  0.00000000E+00
  0.00000000E+00  0.00000000E+00  0.00000000E+00
  0.00000000E+00  0.00000000E+00  0.00000000E+00
  0.00000000E+00  0.00000000E+00  0.00000000E+00
  0.00000000E+00  0.00000000E+00  0.00000000E+00
  0.00000000E+00  0.00000000E+00  0.00000000E+00
  0.00000000E+00  0.00000000E+00  0.00000000E+00
  0.00000000E+00  0.00000000E+00  0.00000000E+00
  0.00000000E+00  0.00000000E+00  0.00000000E+00
  0.00000000E+00  0.00000000E+00  0.00000000E+00
  0.00000000E+00  0.00000000E+00  0.00000000E+00
  0.00000000E+00  0.00000000E+00  0.00000000E+00
  0.00000000E+00  0.00000000E+00  0.00000000E+00
  0.00000000E+00  0.00000000E+00  0.00000000E+00
  0.00000000E+00  0.00000000E+00  0.00000000E+00
  0.00000000E+00  0.00000000E+00  0.00000000E+00
  0.00000000E+00  0.00000000E+00  0.00000000E+00
  0.00000000E+00  0.00000000E+00  0.00000000E+00
  0.00000000E+00  0.00000000E+00  0.00000000E+00
  0.00000000E+00  0.00000000E+00  0.00000000E+00
