Li24 P4 S20 Cl4                         
   1.00000000000000     
     9.6895115921136004    0.0000000000000000    0.0000000000000000
     0.0000000000000000    9.6895115921136004    0.0000000000000000
     0.0000000000000000    0.0000000000000000    9.6895115921136004
   Li   P    S    Cl
    24     4    20     4
Direct
  0.9934103287066564  0.1840018318834229  0.1966485868928390
  0.9542382325152462  0.8328987183489015  0.8178079842567668
  0.0268378093230064  0.1985300113013272  0.7804112906213984
  0.0200309072993900  0.6781401342811837  0.3058214948284479
  0.2196323104286041  0.1985300113013272  0.9732057917269890
  0.1822356167932356  0.8328987183489015  0.0458053685347493
  0.8033950141571635  0.1840018318834229  0.0066332723433461
  0.6942221062216256  0.6781401342811837  0.9800126937506123
  0.3020194565986228  0.9767935650662276  0.3304150312917621
  0.3247421132678523  0.0276208129606982  0.6753014877821500
  0.6696285697582404  0.9767935650662276  0.6980241444513797
  0.6847152893942005  0.0303960826471232  0.3153283116558019
  0.2012429427685643  0.6914675831713762  0.4908490801810348
  0.1937545345058654  0.3241687704733601  0.5171875997505401
  0.7080770465669182  0.7776082763616656  0.5196081354952862
  0.8295017963808670  0.3010874919207290  0.4622432929390251
  0.2410826337828359  0.4801371310095420  0.7589609672671596
  0.3211045855150985  0.5388784064744525  0.1722331695166383
  0.7717170570245517  0.4696200496336139  0.2283265440254508
  0.8278104315333571  0.5388784064744525  0.6789390155349040
  0.4828560012994551  0.3241687704733601  0.8062890665441372
  0.4804354655547163  0.7776082763616656  0.2919665544830842
  0.5378003081109773  0.3010874919207290  0.1705418046691355
  0.5091945208689675  0.6914675831713762  0.7988006582814310
  0.5105574288835036  0.4847082626866713  0.4894861721664988
  0.4975841573177204  0.9950713063076547  0.0031556509441972
  0.0067759281763611  0.5059136552507580  0.9932676728736484
  0.9968879501057981  0.9950713063076547  0.5024594437322820
  0.1195365127010597  0.8796661636738985  0.6302800696972042
  0.1221426689787592  0.1257222861873600  0.3909017574388223
  0.8815006221493563  0.8764140668616600  0.3715531419197649
  0.8648373071920989  0.1132891240497294  0.6188512626207474
  0.8883320871734343  0.6368895093382121  0.1117115138765682
  0.8832725540056110  0.3853636680217047  0.8707489609403657
  0.1206921546155011  0.6432024413866841  0.8793514464345015
  0.1292946401096368  0.3853636680217047  0.1167710470443915
  0.6091418436111659  0.1257222861873600  0.8779009320712433
  0.6284904591302377  0.8764140668616600  0.1185429789006532
  0.3811923384292550  0.1132891240497294  0.1352062938578965
  0.3697635313527982  0.8796661636738985  0.8805070883489428
  0.6333610892255244  0.6075094082289524  0.3666825118244710
  0.6375134266908037  0.3712031814059660  0.6130422441183964
  0.3873899731860310  0.6077890711899259  0.6126536278639714
  0.3870013569316061  0.3712031814059660  0.3625301743591915
  0.7374287409985838  0.7511204519096391  0.7532651573848683
  0.7632528994211374  0.2405840244197139  0.2367907016288581
  0.2467784436651341  0.7511204519096391  0.2626148600514257
  0.2580176008568004  0.2501363559906136  0.7420260001932021
  0.0151310470992191  0.0368383952824521  0.9849125539507763
  0.0073040635446650  0.5022515251628040  0.4955040063961227
  0.5115200687186311  0.9612128179490124  0.4885235323313714
  0.5045395946538869  0.5022515251628040  0.9927395375053302
 
  0.00000000E+00  0.00000000E+00  0.00000000E+00
  0.00000000E+00  0.00000000E+00  0.00000000E+00
  0.00000000E+00  0.00000000E+00  0.00000000E+00
  0.00000000E+00  0.00000000E+00  0.00000000E+00
  0.00000000E+00  0.00000000E+00  0.00000000E+00
  0.00000000E+00  0.00000000E+00  0.00000000E+00
  0.00000000E+00  0.00000000E+00  0.00000000E+00
  0.00000000E+00  0.00000000E+00  0.00000000E+00
  0.00000000E+00  0.00000000E+00  0.00000000E+00
  0.00000000E+00  0.00000000E+00  0.00000000E+00
  0.00000000E+00  0.00000000E+00  0.00000000E+00
  0.00000000E+00  0.00000000E+00  0.00000000E+00
  0.00000000E+00  0.00000000E+00  0.00000000E+00
  0.00000000E+00  0.00000000E+00  0.00000000E+00
  0.00000000E+00  0.00000000E+00  0.00000000E+00
  0.00000000E+00  0.00000000E+00  0.00000000E+00
  0.00000000E+00  0.00000000E+00  0.00000000E+00
  0.00000000E+00  0.00000000E+00  0.00000000E+00
  0.00000000E+00  0.00000000E+00  0.00000000E+00
  0.00000000E+00  0.00000000E+00  0.00000000E+00
  0.00000000E+00  0.00000000E+00  0.00000000E+00
  0.00000000E+00  0.00000000E+00  0.00000000E+00
  0.00000000E+00  0.00000000E+00  0.00000000E+00
  0.00000000E+00  0.00000000E+00  0.00000000E+00
  0.00000000E+00  0.00000000E+00  0.00000000E+00
  0.00000000E+00  0.00000000E+00  0.00000000E+00
  0.00000000E+00  0.00000000E+00  0.00000000E+00
  0.00000000E+00  0.00000000E+00  0.00000000E+00
  0.00000000E+00  0.00000000E+00  0.00000000E+00
  0.00000000E+00  0.00000000E+00  0.00000000E+00
  0.00000000E+00  0.00000000E+00  0.00000000E+00
  0.00000000E+00  0.00000000E+00  0.00000000E+00
  0.00000000E+00  0.00000000E+00  0.00000000E+00
  0.00000000E+00  0.00000000E+00  0.00000000E+00
  0.00000000E+00  0.00000000E+00  0.00000000E+00
  0.00000000E+00  0.00000000E+00  0.00000000E+00
  0.00000000E+00  0.00000000E+00  0.00000000E+00
  0.00000000E+00  0.00000000E+00  0.00000000E+00
  0.00000000E+00  0.00000000E+00  0.00000000E+00
  0.00000000E+00  0.00000000E+00  0.00000000E+00
  0.00000000E+00  0.00000000E+00  0.00000000E+00
  0.00000000E+00  0.00000000E+00  0.00000000E+00
  0.00000000E+00  0.00000000E+00  0.00000000E+00
  0.00000000E+00  0.00000000E+00  0.00000000E+00
  0.00000000E+00  0.00000000E+00  0.00000000E+00
  0.00000000E+00  0.00000000E+00  0.00000000E+00
  0.00000000E+00  0.00000000E+00  0.00000000E+00
  0.00000000E+00  0.00000000E+00  0.00000000E+00
  0.00000000E+00  0.00000000E+00  0.00000000E+00
  0.00000000E+00  0.00000000E+00  0.00000000E+00
  0.00000000E+00  0.00000000E+00  0.00000000E+00
  0.00000000E+00  0.00000000E+00  0.00000000E+00
