Li24 P4 S20 Cl4                         
   1.00000000000000     
     9.6895115921136004    0.0000000000000000    0.0000000000000000
     0.0000000000000000    9.6895115921136004    0.0000000000000000
     0.0000000000000000    0.0000000000000000    9.6895115921136004
   Li   P    S    Cl
    24     4    20     4
Direct
  0.9934104036138862  0.1840199931452275  0.1966495923252012
  0.9542454677819876  0.8328876186144285  0.8177894956469558
  0.0268448788535878  0.1985322233016475  0.7804095465663679
  0.0200283187167116  0.6781660364889248  0.3058074708289098
  0.2196340544836346  0.1985322233016475  0.9731987221964076
  0.1822541054030467  0.8328876186144285  0.0457981332680077
  0.8033940087248013  0.1840199931452275  0.0066331974361162
  0.6942361302211637  0.6781660364889248  0.9800152823332908
  0.3020145582314129  0.9767951595105018  0.3303961124292485
  0.3247310411065314  0.0276223835013525  0.6753125599434711
  0.6696474886207540  0.9767951595105018  0.6980290428185896
  0.6847190907053289  0.0303967982489937  0.3153245103446736
  0.2012447534498492  0.6914592003862694  0.4908396537595721
  0.1937386449508907  0.3241537646009860  0.5171854523675279
  0.7080577746257788  0.7776070804121176  0.5196133313649227
  0.8294720532910986  0.3010789355944823  0.4622489889151211
  0.2410860307648122  0.4801400317608824  0.7589575702851832
  0.3211056757989823  0.5388808474965927  0.1722331468601155
  0.7717064708592218  0.4696178220660059  0.2283371301907806
  0.8278104541898799  0.5388808474965927  0.6789379252510201
  0.4828581486824675  0.3241537646009860  0.8063049560991118
  0.4804302696850797  0.7776070804121176  0.2919858264242237
  0.5377946121348813  0.3010789355944823  0.1705715477589038
  0.5092039472904304  0.6914592003862694  0.7987988476001462
  0.5105509826974668  0.4847148737084481  0.4894926183525357
  0.4975856515333632  0.9950688132993335  0.0031554658918935
  0.0067781336655059  0.5059081769413751  0.9932654673845036
  0.9968881351581018  0.9950688132993335  0.5024579495166392
  0.1195363959903801  0.8796627002963575  0.6302684729033103
  0.1221377881290380  0.1257104335972983  0.3908937137062125
  0.8814914886545537  0.8764119193170430  0.3715692162197115
  0.8648502733237677  0.1132909953100167  0.6188508497873997
  0.8883291562947306  0.6368624185192999  0.1117144447552718
  0.8832845339655222  0.3853630602587685  0.8707435787671685
  0.1206911499176542  0.6431959638476314  0.8793524511323483
  0.1293000222828340  0.3853630602587685  0.1167590670844803
  0.6091498873437757  0.1257104335972983  0.8779058129209645
  0.6284743848302909  0.8764119193170430  0.1185521123954558
  0.3811927512626028  0.1132909953100167  0.1351933277262276
  0.3697751281466921  0.8796627002963575  0.8805072050596223
  0.6333535857065655  0.6075105375043748  0.3666900153434298
  0.6375017536311915  0.3712127588375864  0.6130468346072959
  0.3873889755420663  0.6077975677550498  0.6126546255079361
  0.3869967664427065  0.3712127588375864  0.3625418474188038
  0.7374317636544419  0.7511205420409368  0.7532625295515842
  0.7632529383981819  0.2405861487974619  0.2367906626518135
  0.2467810714984182  0.7511205420409368  0.2626118373955677
  0.2580178129667701  0.2501435197748592  0.7420257880832324
  0.0151409017381638  0.0368620712139531  0.9849026993118315
  0.0073007797378608  0.5022535633010676  0.4954965384570542
  0.5115279100085175  0.9612015384412373  0.4885156910414850
  0.5045470625929553  0.5022535633010676  0.9927428213121345
 
  0.00000000E+00  0.00000000E+00  0.00000000E+00
  0.00000000E+00  0.00000000E+00  0.00000000E+00
  0.00000000E+00  0.00000000E+00  0.00000000E+00
  0.00000000E+00  0.00000000E+00  0.00000000E+00
  0.00000000E+00  0.00000000E+00  0.00000000E+00
  0.00000000E+00  0.00000000E+00  0.00000000E+00
  0.00000000E+00  0.00000000E+00  0.00000000E+00
  0.00000000E+00  0.00000000E+00  0.00000000E+00
  0.00000000E+00  0.00000000E+00  0.00000000E+00
  0.00000000E+00  0.00000000E+00  0.00000000E+00
  0.00000000E+00  0.00000000E+00  0.00000000E+00
  0.00000000E+00  0.00000000E+00  0.00000000E+00
  0.00000000E+00  0.00000000E+00  0.00000000E+00
  0.00000000E+00  0.00000000E+00  0.00000000E+00
  0.00000000E+00  0.00000000E+00  0.00000000E+00
  0.00000000E+00  0.00000000E+00  0.00000000E+00
  0.00000000E+00  0.00000000E+00  0.00000000E+00
  0.00000000E+00  0.00000000E+00  0.00000000E+00
  0.00000000E+00  0.00000000E+00  0.00000000E+00
  0.00000000E+00  0.00000000E+00  0.00000000E+00
  0.00000000E+00  0.00000000E+00  0.00000000E+00
  0.00000000E+00  0.00000000E+00  0.00000000E+00
  0.00000000E+00  0.00000000E+00  0.00000000E+00
  0.00000000E+00  0.00000000E+00  0.00000000E+00
  0.00000000E+00  0.00000000E+00  0.00000000E+00
  0.00000000E+00  0.00000000E+00  0.00000000E+00
  0.00000000E+00  0.00000000E+00  0.00000000E+00
  0.00000000E+00  0.00000000E+00  0.00000000E+00
  0.00000000E+00  0.00000000E+00  0.00000000E+00
  0.00000000E+00  0.00000000E+00  0.00000000E+00
  0.00000000E+00  0.00000000E+00  0.00000000E+00
  0.00000000E+00  0.00000000E+00  0.00000000E+00
  0.00000000E+00  0.00000000E+00  0.00000000E+00
  0.00000000E+00  0.00000000E+00  0.00000000E+00
  0.00000000E+00  0.00000000E+00  0.00000000E+00
  0.00000000E+00  0.00000000E+00  0.00000000E+00
  0.00000000E+00  0.00000000E+00  0.00000000E+00
  0.00000000E+00  0.00000000E+00  0.00000000E+00
  0.00000000E+00  0.00000000E+00  0.00000000E+00
  0.00000000E+00  0.00000000E+00  0.00000000E+00
  0.00000000E+00  0.00000000E+00  0.00000000E+00
  0.00000000E+00  0.00000000E+00  0.00000000E+00
  0.00000000E+00  0.00000000E+00  0.00000000E+00
  0.00000000E+00  0.00000000E+00  0.00000000E+00
  0.00000000E+00  0.00000000E+00  0.00000000E+00
  0.00000000E+00  0.00000000E+00  0.00000000E+00
  0.00000000E+00  0.00000000E+00  0.00000000E+00
  0.00000000E+00  0.00000000E+00  0.00000000E+00
  0.00000000E+00  0.00000000E+00  0.00000000E+00
  0.00000000E+00  0.00000000E+00  0.00000000E+00
  0.00000000E+00  0.00000000E+00  0.00000000E+00
  0.00000000E+00  0.00000000E+00  0.00000000E+00
