Li24 P4 S20 Cl4
   1.0000000000000000
     9.6601285933999996   0.0000000000000000   0.0000000000000000
     0.0000000000000000   9.6601285933999996   0.0000000000000000
     0.0000000000000000   0.0000000000000000   9.6601285933999996
   Li  P  S  Cl
   24  4  20  4
Direct
    0.2120260088000000   0.9348119998000000  -0.1564939912000000
    0.3070900140000000  -0.0055999978000000   0.4614180148000000
    0.0280000010000000   0.5385820152000000   0.4614180148000000
    0.9793819904000000   0.6856240036000000   0.6856240036000000
    0.8150859829999999   0.3059740006000000   0.1377220024000000
    0.7036619902000000   0.5824140190000000   0.8623020174000000
    0.7108299729999999   0.4912500080000000   0.2108300030000000
    0.8942820064000001   1.0241279900000000   0.7099079844000000
    0.8507280114000000   0.1832739982000000   0.3043339998000000
    0.5169600132000001   0.8143759964000000   0.5136180044000000
    0.3070900140000000  -0.0385820092000000   0.4944000006000000
    0.8070899840000000   0.0280000010000000   0.1929100010000000
    0.8167259808000000   0.9717880010000000   0.8167259808000000
    0.4011319994000000   0.8122460012000000  -0.0314140084000000
    0.4940819976000000   0.5241280200000000   0.1784559968000000
    0.3150860010000000   0.3059740006000000   0.6377220030000000
    1.0493339954000001   0.5164500114000000   0.4506660046000000
    0.1940259994000000   0.5061620056000000   0.5589699861999999
    0.4014500024000000   0.2977919996000000   0.4830399928000000
    0.4944000006000000   1.0385819942000001   0.6929100160000000
    0.2900919976000000   0.8215439792000000   0.1399540056000000
   -0.0385820092000000  -0.0385820092000000   0.9720000030000000
    0.5143760144000000   0.2830400048000000  -0.0136180012000000
    0.6311799880000000   0.4662360132000000   0.2942939988000000
    0.5092733859999999   0.5045008061999999   0.4995651482000000
    0.5039285900000000   0.9990950148000000  -0.0013866060000000
    0.0109401740000000   0.5001670358000000   0.0009048280000000
    0.0030191860000000   0.0021758820000000   0.4995324436000000
    0.1221247464000000   0.8826522712000000   0.6287171246000001
    0.1233862698000000   0.1250770660000000   0.3751785338000000
    0.8845128774000001   0.8742732048000000   0.3836905476000000
    0.8832187532000000   0.1271812886000000   0.6193725348000000
    0.8915783882000000   0.6194605472000000   0.1298165470000000
    0.8937379475999999   0.3757562402000000   0.8745735172000000
    0.1250176612000000   0.6326686618000000   0.8808166744000000
    0.1394118338000000   0.3793209970000000   0.1171483354000000
    0.6222239372000000   0.1136014224000000   0.8639044048000000
    0.6275223616000000   0.8743155243999999   0.1182818916000000
    0.3916680276000000   0.1310052900000000   0.1205157146000000
    0.3706631778000000   0.8732664108000000   0.8918840762000000
    0.6246042010000000   0.6352270005999999   0.3804484726000000
    0.6351205827999999   0.3751826466000000   0.6100162508000000
    0.3903793870000000   0.6213201164000000   0.6314873338000000
    0.3874486390000000   0.3837323906000000   0.3744943318000000
    0.7541779516000000   0.7481779578000000   0.7503815890000001
    0.7587937473999999   0.2495290934000000   0.2451730968000000
    0.2512835678000000   0.7543725374000000   0.2501338182000000
    0.2652182760000000   0.2521703780000000   0.7465009804000000
    0.9822989466000001   0.0067995706000000   0.0072164810000000
    0.0318565686000000   0.4966085256000000   0.5105992140000000
    0.4812948702000000   0.9904779673999999   0.5043854416000000
    0.5384524466000000   0.4959022880000000   0.0052439356000000