Generated POSCAR
1.0
10.279498 0.0 0.0
0.0 10.279498 0.0
0.0 0.0 10.279498
Li
3
Direct
0.7257721652295905 0.8478371919463565 0.5292309865978682
0.1225873582527948 0.6828023935220079 0.4403284797312295
0.4653977288553420 0.6093439291364479 0.2187460010250879
