Li24 P4 S20 Cl4                         
   1.00000000000000     
     9.6494745416551773    0.0000000000000000    0.0000000000000000
     0.0000000000000000    9.6494745416551773    0.0000000000000000
     0.0000000000000000    0.0000000000000000    9.6494745416551773
   Li   P    S    Cl
    24     4    20     4
Direct
  0.9657894536962601  0.3207306418864135  0.3429472261147737
  0.9873580790376622  0.6977939645573770  0.7172339044231748
  0.0292025763644901  0.3462055277558207  0.7129449035500457
  0.0326795787119707  0.8442757974611581  0.2159373329962833
  0.1927197295891077  0.1941090857959509  0.9987513249689712
  0.2198808817083204  0.8042805787046561  0.0177053548132022
  0.8382228126950295  0.1817893374022646  0.0467564725591885
  0.8284754711051150  0.8195322616787308  0.9629249653775034
  0.3260622511676274  0.9586738289212491  0.3481122900984985
  0.1877053777959858  0.0160497123926717  0.7902121401353810
  0.7292035755921091  0.9865236926035834  0.7156907492655975
  0.6773697691122820  0.0248818486733597  0.3068750447384403
  0.1798203639324072  0.6643932839607132  0.4595733932477017
  0.2439410742005350  0.2415529813816661  0.5308161523472492
  0.8041958499249446  0.6692461677981427  0.5217333950295995
  0.7052805044564892  0.2263975297410070  0.4933468923963105
  0.3370299147373501  0.4632778690547497  0.8301392836196300
  0.2898566965111726  0.5178690654421914  0.1968386992823810
  0.7170006187234605  0.4877318716761820  0.2124119322226292
  0.6757278633326109  0.5443067526251042  0.8429518031381704
  0.4723340600911214  0.1889595428531834  0.7128964723670279
  0.4826321156976121  0.7092899143407436  0.1849075556697528
  0.5240884769914516  0.2912488850670130  0.1789315205943254
  0.5272697031403908  0.7990554200089477  0.6575057501749839
  0.4910895004657689  0.5006734208501058  0.5072251932175291
  0.5090740078752702  0.9995364109298350  0.9989101565507497
  0.9998821789245298  0.5045243156380366  0.0146988745645658
  0.9990860712737089  0.0003935475906545  0.5008664891741148
  0.1314019180632684  0.8705894749934018  0.6062936125961826
  0.1180912190394636  0.1129634777016548  0.3647656061721563
  0.8633079094492686  0.8802882741621048  0.3915356351580144
  0.8980988760737176  0.1369514884040086  0.6297077593574585
  0.8900032651339274  0.6425945894562659  0.1318655765730625
  0.8672639922922443  0.3874117566060420  0.8971202735214518
  0.1365777743429319  0.6089404291334688  0.8887561623065352
  0.1068114820637049  0.3718129698783486  0.1420418789472535
  0.6323913807373103  0.1364612278393267  0.8930541860735062
  0.6401711368822305  0.8778493858985073  0.1139249890289520
  0.3794341354391051  0.1003501210692619  0.1348029760558944
  0.3941255108180215  0.8826795130894496  0.8633960654069810
  0.6080555960017193  0.6316844225811096  0.3862643681173878
  0.6127124957704666  0.3914378720864491  0.6439603532066798
  0.3609551721838216  0.6166542547778846  0.6275468682730008
  0.3814794450620056  0.3708184227049358  0.3794870203972067
  0.7539022863733962  0.7516427643153776  0.7454872900435845
  0.7476667770350147  0.2537181807926885  0.2610594037286447
  0.2548771235263558  0.7493570106412264  0.2474596098554400
  0.2458719167082748  0.2475561080214845  0.7676158630830017
  0.0244406746890888  0.9869593804680150  0.9961037901002641
  0.9962285322881286  0.5070045908073268  0.5211040879684532
  0.5261580101895831  0.0226236892384080  0.5206153124120050
  0.4996625529820378  0.5010067285418742  0.0354673889789439
 
  0.00000000E+00  0.00000000E+00  0.00000000E+00
  0.00000000E+00  0.00000000E+00  0.00000000E+00
  0.00000000E+00  0.00000000E+00  0.00000000E+00
  0.00000000E+00  0.00000000E+00  0.00000000E+00
  0.00000000E+00  0.00000000E+00  0.00000000E+00
  0.00000000E+00  0.00000000E+00  0.00000000E+00
  0.00000000E+00  0.00000000E+00  0.00000000E+00
  0.00000000E+00  0.00000000E+00  0.00000000E+00
  0.00000000E+00  0.00000000E+00  0.00000000E+00
  0.00000000E+00  0.00000000E+00  0.00000000E+00
  0.00000000E+00  0.00000000E+00  0.00000000E+00
  0.00000000E+00  0.00000000E+00  0.00000000E+00
  0.00000000E+00  0.00000000E+00  0.00000000E+00
  0.00000000E+00  0.00000000E+00  0.00000000E+00
  0.00000000E+00  0.00000000E+00  0.00000000E+00
  0.00000000E+00  0.00000000E+00  0.00000000E+00
  0.00000000E+00  0.00000000E+00  0.00000000E+00
  0.00000000E+00  0.00000000E+00  0.00000000E+00
  0.00000000E+00  0.00000000E+00  0.00000000E+00
  0.00000000E+00  0.00000000E+00  0.00000000E+00
  0.00000000E+00  0.00000000E+00  0.00000000E+00
  0.00000000E+00  0.00000000E+00  0.00000000E+00
  0.00000000E+00  0.00000000E+00  0.00000000E+00
  0.00000000E+00  0.00000000E+00  0.00000000E+00
  0.00000000E+00  0.00000000E+00  0.00000000E+00
  0.00000000E+00  0.00000000E+00  0.00000000E+00
  0.00000000E+00  0.00000000E+00  0.00000000E+00
  0.00000000E+00  0.00000000E+00  0.00000000E+00
  0.00000000E+00  0.00000000E+00  0.00000000E+00
  0.00000000E+00  0.00000000E+00  0.00000000E+00
  0.00000000E+00  0.00000000E+00  0.00000000E+00
  0.00000000E+00  0.00000000E+00  0.00000000E+00
  0.00000000E+00  0.00000000E+00  0.00000000E+00
  0.00000000E+00  0.00000000E+00  0.00000000E+00
  0.00000000E+00  0.00000000E+00  0.00000000E+00
  0.00000000E+00  0.00000000E+00  0.00000000E+00
  0.00000000E+00  0.00000000E+00  0.00000000E+00
  0.00000000E+00  0.00000000E+00  0.00000000E+00
  0.00000000E+00  0.00000000E+00  0.00000000E+00
  0.00000000E+00  0.00000000E+00  0.00000000E+00
  0.00000000E+00  0.00000000E+00  0.00000000E+00
  0.00000000E+00  0.00000000E+00  0.00000000E+00
  0.00000000E+00  0.00000000E+00  0.00000000E+00
  0.00000000E+00  0.00000000E+00  0.00000000E+00
  0.00000000E+00  0.00000000E+00  0.00000000E+00
  0.00000000E+00  0.00000000E+00  0.00000000E+00
  0.00000000E+00  0.00000000E+00  0.00000000E+00
  0.00000000E+00  0.00000000E+00  0.00000000E+00
  0.00000000E+00  0.00000000E+00  0.00000000E+00
  0.00000000E+00  0.00000000E+00  0.00000000E+00
  0.00000000E+00  0.00000000E+00  0.00000000E+00
  0.00000000E+00  0.00000000E+00  0.00000000E+00
