Li24 P4 S20 Cl4                         
   1.00000000000000     
     9.6895376890264160    0.0000000000000000    0.0000000000000000
     0.0000000000000000    9.6895376890264160    0.0000000000000000
     0.0000000000000000    0.0000000000000000    9.6895376890264160
   Li   P    S    Cl
    24     4    20     4
Direct
  0.9801609077789019  0.2590081330503802  0.2411262730342391
  0.9695550921865562  0.7283819169934240  0.7717524890911882
  0.0388487579958962  0.1789912393416051  0.8278537896284131
  0.0388487579958962  0.6722806164561992  0.3211431667430071
  0.3328849503054860  0.3178680767020503  0.9542797768019212
  0.1780089850093733  0.8058735682717089  0.0201193451138411
  0.6985236529755828  0.2804595067933841  0.0268760755234462
  0.6839840581039243  0.6967155010367521  0.9934560477768443
  0.1915522489468250  0.9909037016459802  0.2013212652529399
  0.2775454320505540  0.0196342837332988  0.7081619235735253
  0.8010457951047636  0.9623107458701551  0.8294169834314845
  0.8241439450889844  0.0172482745953982  0.1937255372156865
  0.2775454320505540  0.7919724825110941  0.4805001223513206
  0.1915522489468250  0.2988131408316724  0.5092307044386321
  0.8010457951047636  0.6707174226531277  0.5378236602144572
  0.8241439450889844  0.3064088688689400  0.4828861314892141
  0.1780089850093733  0.4800150609707782  0.6942608378129034
  0.3328849503054860  0.5458546292826910  0.1822663293825620
  0.6985236529755828  0.4732583305611731  0.2196748992912281
  0.6839840581039243  0.5066783583077680  0.8034189050478602
  0.4767741698468443  0.1980071212518044  0.6697153834853256
  0.4767741698468443  0.8304190225992938  0.3021272848328078
  0.5276625949969515  0.1753226694633970  0.3248117366212223
  0.5302630942766074  0.8152936518643201  0.6848407542202921
  0.4950269974244906  0.5031612317991963  0.4976283785269722
  0.4950269974244906  0.0025060275576400  0.9969731742854231
  0.0058725420674968  0.4933520542111243  0.0067823518734951
  0.9846912911580004  0.9895672172685068  0.5105671888161125
  0.1074443933114885  0.8667377456327349  0.6333966604518845
  0.1078120938760530  0.1127078951097942  0.3874265109748181
  0.8711890417237375  0.8626234227014562  0.3869981160942007
  0.8711890417237375  0.1131362899904116  0.6375109833831631
  0.8853378928359008  0.6168525004507541  0.1293121222208918
  0.8853378928359008  0.3708222838637276  0.8832819056338581
  0.1368479861785110  0.6117941962433182  0.8883402098413011
  0.1431677029920640  0.3794375123754733  0.1206968937091389
  0.6132676194848788  0.1188674291335078  0.8649120747819156
  0.6256647096909338  0.8909364569227095  0.1222313875135659
  0.3796751570564570  0.1303714230904268  0.1196085662562220
  0.3763310124616920  0.8716085916597011  0.8816136379034977
  0.6132676194848646  0.6352223313026967  0.3812669769510902
  0.6256647096909338  0.3779030185710534  0.6091979491619027
  0.3763310124616920  0.6185207681811217  0.6285258144249112
  0.3796751570564570  0.3805258398283902  0.3697629829941854
  0.7405208905078371  0.7368472070620080  0.7632871990226113
  0.7501576865239209  0.2420866207101012  0.2580477853745181
  0.2510996592880211  0.7626508573141220  0.2468367778037837
  0.2510996592880211  0.2532976282808357  0.7374835487704903
  0.0022180291029938  0.9955742299460066  0.0073373325061926
  0.0022180291030009  0.4927970735784338  0.5045601761386056
  0.4611865646358391  0.9885229095263768  0.5116114965582426
  0.5368435986151592  0.4849628622318017  0.0151715438528105
 
  0.00000000E+00  0.00000000E+00  0.00000000E+00
  0.00000000E+00  0.00000000E+00  0.00000000E+00
  0.00000000E+00  0.00000000E+00  0.00000000E+00
  0.00000000E+00  0.00000000E+00  0.00000000E+00
  0.00000000E+00  0.00000000E+00  0.00000000E+00
  0.00000000E+00  0.00000000E+00  0.00000000E+00
  0.00000000E+00  0.00000000E+00  0.00000000E+00
  0.00000000E+00  0.00000000E+00  0.00000000E+00
  0.00000000E+00  0.00000000E+00  0.00000000E+00
  0.00000000E+00  0.00000000E+00  0.00000000E+00
  0.00000000E+00  0.00000000E+00  0.00000000E+00
  0.00000000E+00  0.00000000E+00  0.00000000E+00
  0.00000000E+00  0.00000000E+00  0.00000000E+00
  0.00000000E+00  0.00000000E+00  0.00000000E+00
  0.00000000E+00  0.00000000E+00  0.00000000E+00
  0.00000000E+00  0.00000000E+00  0.00000000E+00
  0.00000000E+00  0.00000000E+00  0.00000000E+00
  0.00000000E+00  0.00000000E+00  0.00000000E+00
  0.00000000E+00  0.00000000E+00  0.00000000E+00
  0.00000000E+00  0.00000000E+00  0.00000000E+00
  0.00000000E+00  0.00000000E+00  0.00000000E+00
  0.00000000E+00  0.00000000E+00  0.00000000E+00
  0.00000000E+00  0.00000000E+00  0.00000000E+00
  0.00000000E+00  0.00000000E+00  0.00000000E+00
  0.00000000E+00  0.00000000E+00  0.00000000E+00
  0.00000000E+00  0.00000000E+00  0.00000000E+00
  0.00000000E+00  0.00000000E+00  0.00000000E+00
  0.00000000E+00  0.00000000E+00  0.00000000E+00
  0.00000000E+00  0.00000000E+00  0.00000000E+00
  0.00000000E+00  0.00000000E+00  0.00000000E+00
  0.00000000E+00  0.00000000E+00  0.00000000E+00
  0.00000000E+00  0.00000000E+00  0.00000000E+00
  0.00000000E+00  0.00000000E+00  0.00000000E+00
  0.00000000E+00  0.00000000E+00  0.00000000E+00
  0.00000000E+00  0.00000000E+00  0.00000000E+00
  0.00000000E+00  0.00000000E+00  0.00000000E+00
  0.00000000E+00  0.00000000E+00  0.00000000E+00
  0.00000000E+00  0.00000000E+00  0.00000000E+00
  0.00000000E+00  0.00000000E+00  0.00000000E+00
  0.00000000E+00  0.00000000E+00  0.00000000E+00
  0.00000000E+00  0.00000000E+00  0.00000000E+00
  0.00000000E+00  0.00000000E+00  0.00000000E+00
  0.00000000E+00  0.00000000E+00  0.00000000E+00
  0.00000000E+00  0.00000000E+00  0.00000000E+00
  0.00000000E+00  0.00000000E+00  0.00000000E+00
  0.00000000E+00  0.00000000E+00  0.00000000E+00
  0.00000000E+00  0.00000000E+00  0.00000000E+00
  0.00000000E+00  0.00000000E+00  0.00000000E+00
  0.00000000E+00  0.00000000E+00  0.00000000E+00
  0.00000000E+00  0.00000000E+00  0.00000000E+00
  0.00000000E+00  0.00000000E+00  0.00000000E+00
  0.00000000E+00  0.00000000E+00  0.00000000E+00
