Li24 P4 S20 Cl4                         
   1.00000000000000     
     9.6895376890264160    0.0000000000000000    0.0000000000000000
     0.0000000000000000    9.6895376890264160    0.0000000000000000
     0.0000000000000000    0.0000000000000000    9.6895376890264160
   Li   P    S    Cl
    24     4    20     4
Direct
  0.9801623131586013  0.2590069771480117  0.2411274289366077
  0.9695541994046195  0.7283855860355573  0.7717488200490550
  0.0388491063609919  0.1789900452985052  0.8278536469788094
  0.0388491063609919  0.6722807591058029  0.3211443607861071
  0.3328809790915344  0.3178614734104812  0.9542833279355847
  0.1780158112237018  0.8058702588269142  0.0201187864248737
  0.6985241266748119  0.2804587441368298  0.0268793626610986
  0.6839916728063145  0.6967145080736117  0.9934566955727959
  0.1915518300208490  0.9909012715303831  0.2013215795370158
  0.2775443517072347  0.0196365210405105  0.7081552148093877
  0.8010427033932288  0.9623134572468715  0.8294027763286920
  0.8241388105361764  0.0172478562298437  0.1937185477597083
  0.2775443517072347  0.7919791912752316  0.4804978850441088
  0.1915518300208490  0.2988128265475964  0.5092331345542291
  0.8010427033932288  0.6707316297559203  0.5378209488377408
  0.8241388105361764  0.3064158583249181  0.4828865498547685
  0.1780158112237018  0.4800156196597456  0.6942641472576980
  0.3328809790915344  0.5458510781490276  0.1822729326741310
  0.6985241266748119  0.4732550434235208  0.2196756619477824
  0.6839916728063145  0.5066777105118163  0.8034198980110006
  0.4767746337359142  0.1980076535651065  0.6697227509238886
  0.4767746337359142  0.8304116551607308  0.3021267525195057
  0.5276624033833457  0.1753263946846388  0.3248080113999805
  0.5302597187586997  0.8152913280525311  0.6848430780320811
  0.4950289154066994  0.5031628885554866  0.4976337765544869
  0.4950289154066994  0.0025006295301253  0.9969715175291327
  0.0058718917356018  0.4933530505076860  0.0067813555769334
  0.9846926282439483  0.9895693626136435  0.5105650434709759
  0.1074411815225815  0.8667421067250771  0.6333922993595422
  0.1078125276353319  0.1127047269890937  0.3874296790955185
  0.8711923712433745  0.8626287477184817  0.3869958002846090
  0.8711923712433745  0.1131386058000032  0.6375056583661376
  0.8853400025983902  0.6168465639138248  0.1293113356804128
  0.8853400025983902  0.3708230704042066  0.8832878421707875
  0.1368399030700260  0.6117962691557324  0.8883381369288870
  0.1431633571773929  0.3794403239604662  0.1206940821241460
  0.6132672375326180  0.1188650841662593  0.8649183385450812
  0.6256593012520568  0.8909337407903024  0.1222287939380706
  0.3796769492391974  0.1303661757520800  0.1196069390488006
  0.3763313858805120  0.8716152933222716  0.8816127239543334
  0.6132672375326038  0.6352160675395311  0.3812693219183387
  0.6256593012520568  0.3779056121465487  0.6092006652943098
  0.3763313858805120  0.6185216821302859  0.6285191127623406
  0.3796769492391974  0.3805274670358116  0.3697682303325323
  0.7405209612854193  0.7368475225785502  0.7632868835060691
  0.7501601740327786  0.2420860065278845  0.2580483995567349
  0.2510993286783787  0.7626495079650439  0.2468376744799770
  0.2510993286783787  0.2532967316046424  0.7374848981195683
  0.0022187128997686  0.9955714037680750  0.0073341963709694
  0.0022187128997757  0.4928002097136570  0.5045630023165373
  0.4611799453021490  0.9885179690266312  0.5116164370579881
  0.5368530028260636  0.4849596810643177  0.0151747250202945
 
  0.00000000E+00  0.00000000E+00  0.00000000E+00
  0.00000000E+00  0.00000000E+00  0.00000000E+00
  0.00000000E+00  0.00000000E+00  0.00000000E+00
  0.00000000E+00  0.00000000E+00  0.00000000E+00
  0.00000000E+00  0.00000000E+00  0.00000000E+00
  0.00000000E+00  0.00000000E+00  0.00000000E+00
  0.00000000E+00  0.00000000E+00  0.00000000E+00
  0.00000000E+00  0.00000000E+00  0.00000000E+00
  0.00000000E+00  0.00000000E+00  0.00000000E+00
  0.00000000E+00  0.00000000E+00  0.00000000E+00
  0.00000000E+00  0.00000000E+00  0.00000000E+00
  0.00000000E+00  0.00000000E+00  0.00000000E+00
  0.00000000E+00  0.00000000E+00  0.00000000E+00
  0.00000000E+00  0.00000000E+00  0.00000000E+00
  0.00000000E+00  0.00000000E+00  0.00000000E+00
  0.00000000E+00  0.00000000E+00  0.00000000E+00
  0.00000000E+00  0.00000000E+00  0.00000000E+00
  0.00000000E+00  0.00000000E+00  0.00000000E+00
  0.00000000E+00  0.00000000E+00  0.00000000E+00
  0.00000000E+00  0.00000000E+00  0.00000000E+00
  0.00000000E+00  0.00000000E+00  0.00000000E+00
  0.00000000E+00  0.00000000E+00  0.00000000E+00
  0.00000000E+00  0.00000000E+00  0.00000000E+00
  0.00000000E+00  0.00000000E+00  0.00000000E+00
  0.00000000E+00  0.00000000E+00  0.00000000E+00
  0.00000000E+00  0.00000000E+00  0.00000000E+00
  0.00000000E+00  0.00000000E+00  0.00000000E+00
  0.00000000E+00  0.00000000E+00  0.00000000E+00
  0.00000000E+00  0.00000000E+00  0.00000000E+00
  0.00000000E+00  0.00000000E+00  0.00000000E+00
  0.00000000E+00  0.00000000E+00  0.00000000E+00
  0.00000000E+00  0.00000000E+00  0.00000000E+00
  0.00000000E+00  0.00000000E+00  0.00000000E+00
  0.00000000E+00  0.00000000E+00  0.00000000E+00
  0.00000000E+00  0.00000000E+00  0.00000000E+00
  0.00000000E+00  0.00000000E+00  0.00000000E+00
  0.00000000E+00  0.00000000E+00  0.00000000E+00
  0.00000000E+00  0.00000000E+00  0.00000000E+00
  0.00000000E+00  0.00000000E+00  0.00000000E+00
  0.00000000E+00  0.00000000E+00  0.00000000E+00
  0.00000000E+00  0.00000000E+00  0.00000000E+00
  0.00000000E+00  0.00000000E+00  0.00000000E+00
  0.00000000E+00  0.00000000E+00  0.00000000E+00
  0.00000000E+00  0.00000000E+00  0.00000000E+00
  0.00000000E+00  0.00000000E+00  0.00000000E+00
  0.00000000E+00  0.00000000E+00  0.00000000E+00
  0.00000000E+00  0.00000000E+00  0.00000000E+00
  0.00000000E+00  0.00000000E+00  0.00000000E+00
  0.00000000E+00  0.00000000E+00  0.00000000E+00
  0.00000000E+00  0.00000000E+00  0.00000000E+00
  0.00000000E+00  0.00000000E+00  0.00000000E+00
  0.00000000E+00  0.00000000E+00  0.00000000E+00
