Li24 P4 S20 Cl4                         
   1.00000000000000     
    10.0247498456476425    0.0000000000000000    0.0000000000000000
     0.0000000000000000   10.0247498456476425    0.0000000000000000
     0.0000000000000000    0.0000000000000000   10.0247498456476425
   Li   P    S    Cl
    24     4    20     4
Direct
  0.9768370026924558  0.2497905667041920  0.2501408980387083
  0.9770135338848931  0.7495398065306560  0.7503985344811426
  0.0230927639103484  0.2500680279329828  0.7498205445452442
  0.0230927221016017  0.7500039883869647  0.2499722897003593
  0.2500000000000000  0.2500000000000000  0.9766754012903576
  0.2500000000000000  0.7500000000000000  0.0234812923672223
  0.7500000000000000  0.2500000000000000  0.0231192596261494
  0.7500000000000000  0.7500000000000000  0.9767696536313153
  0.2500447785792304  0.9767530485687601  0.2498601690062543
  0.2498861863914073  0.0233274237984205  0.7495749214828962
  0.7503755507252947  0.9767123169483369  0.7501953570264277
  0.7499975738864819  0.0232518650132292  0.2498743917071877
  0.2500000000000000  0.7500000000000000  0.4768297349946096
  0.2500000000000000  0.2500000000000000  0.5231663932306461
  0.7500000000000000  0.7500000000000000  0.5233377450671384
  0.7500000000000000  0.2500000000000000  0.4766201167879345
  0.2501138136085927  0.4766725762015795  0.7495749214828962
  0.2499552214207696  0.5232469514312470  0.2498601690062543
  0.7500024261135181  0.4767481349867708  0.2498743917071877
  0.7496244492747053  0.5232876830516631  0.7501953570264277
  0.4769072360896516  0.2499319720670172  0.7498205445452442
  0.4769072778983983  0.7499960116130353  0.2499722897003593
  0.5231629973075442  0.2502094332958080  0.2501408980387083
  0.5229864661151069  0.7504601934693440  0.7503985344811426
  0.5000496125620586  0.5001092723122298  0.5000021502915715
  0.4999001746775491  0.0001624318120363  0.0000551386197358
  0.0000998253224509  0.4998375681879637  0.0000551386197358
  0.9999503874379414  0.9998907276877702  0.5000021502915715
  0.1179061666695134  0.8817187927490480  0.6181410627542050
  0.1182094712726993  0.1178871163242121  0.3819638317883332
  0.8817484613620934  0.8818923974770669  0.3818782016597595
  0.8818158880434410  0.1180695274011754  0.6179563489268176
  0.8819528471576774  0.6180259211094992  0.1179769455643012
  0.8818843221868207  0.3819745113814221  0.8818193508961372
  0.1186156556524907  0.6177138589926869  0.8821438662177812
  0.1180369202458706  0.3816456926311389  0.1182070838709635
  0.6181156778131793  0.1180254886185779  0.8818193508961372
  0.6180471528423226  0.8819740788905008  0.1179769455643012
  0.3819630797541294  0.1183543073688611  0.1182070838709635
  0.3813843443475093  0.8822861410073131  0.8821438662177812
  0.6182515386379066  0.6181076025229331  0.3818782016597595
  0.6181841119565590  0.3819304725988246  0.6179563489268176
  0.3820938333304866  0.6182812072509520  0.6181410627542050
  0.3817905287273007  0.3821128836757879  0.3819638317883332
  0.7500000000000000  0.7500000000000000  0.7500614098545952
  0.7500000000000000  0.2500000000000000  0.2498860655839863
  0.2500000000000000  0.7500000000000000  0.2501263995108189
  0.2500000000000000  0.2500000000000000  0.7499112315299286
  0.9999531702986673  0.9998844106946194  0.0000130128141222
  0.0001862575165603  0.4998834957161833  0.5000135488707684
  0.4998137424834397  0.0001165042838167  0.5000135488707684
  0.5000468297013327  0.5001155893053806  0.0000130128141222
 
  0.00000000E+00  0.00000000E+00  0.00000000E+00
  0.00000000E+00  0.00000000E+00  0.00000000E+00
  0.00000000E+00  0.00000000E+00  0.00000000E+00
  0.00000000E+00  0.00000000E+00  0.00000000E+00
  0.00000000E+00  0.00000000E+00  0.00000000E+00
  0.00000000E+00  0.00000000E+00  0.00000000E+00
  0.00000000E+00  0.00000000E+00  0.00000000E+00
  0.00000000E+00  0.00000000E+00  0.00000000E+00
  0.00000000E+00  0.00000000E+00  0.00000000E+00
  0.00000000E+00  0.00000000E+00  0.00000000E+00
  0.00000000E+00  0.00000000E+00  0.00000000E+00
  0.00000000E+00  0.00000000E+00  0.00000000E+00
  0.00000000E+00  0.00000000E+00  0.00000000E+00
  0.00000000E+00  0.00000000E+00  0.00000000E+00
  0.00000000E+00  0.00000000E+00  0.00000000E+00
  0.00000000E+00  0.00000000E+00  0.00000000E+00
  0.00000000E+00  0.00000000E+00  0.00000000E+00
  0.00000000E+00  0.00000000E+00  0.00000000E+00
  0.00000000E+00  0.00000000E+00  0.00000000E+00
  0.00000000E+00  0.00000000E+00  0.00000000E+00
  0.00000000E+00  0.00000000E+00  0.00000000E+00
  0.00000000E+00  0.00000000E+00  0.00000000E+00
  0.00000000E+00  0.00000000E+00  0.00000000E+00
  0.00000000E+00  0.00000000E+00  0.00000000E+00
  0.00000000E+00  0.00000000E+00  0.00000000E+00
  0.00000000E+00  0.00000000E+00  0.00000000E+00
  0.00000000E+00  0.00000000E+00  0.00000000E+00
  0.00000000E+00  0.00000000E+00  0.00000000E+00
  0.00000000E+00  0.00000000E+00  0.00000000E+00
  0.00000000E+00  0.00000000E+00  0.00000000E+00
  0.00000000E+00  0.00000000E+00  0.00000000E+00
  0.00000000E+00  0.00000000E+00  0.00000000E+00
  0.00000000E+00  0.00000000E+00  0.00000000E+00
  0.00000000E+00  0.00000000E+00  0.00000000E+00
  0.00000000E+00  0.00000000E+00  0.00000000E+00
  0.00000000E+00  0.00000000E+00  0.00000000E+00
  0.00000000E+00  0.00000000E+00  0.00000000E+00
  0.00000000E+00  0.00000000E+00  0.00000000E+00
  0.00000000E+00  0.00000000E+00  0.00000000E+00
  0.00000000E+00  0.00000000E+00  0.00000000E+00
  0.00000000E+00  0.00000000E+00  0.00000000E+00
  0.00000000E+00  0.00000000E+00  0.00000000E+00
  0.00000000E+00  0.00000000E+00  0.00000000E+00
  0.00000000E+00  0.00000000E+00  0.00000000E+00
  0.00000000E+00  0.00000000E+00  0.00000000E+00
  0.00000000E+00  0.00000000E+00  0.00000000E+00
  0.00000000E+00  0.00000000E+00  0.00000000E+00
  0.00000000E+00  0.00000000E+00  0.00000000E+00
  0.00000000E+00  0.00000000E+00  0.00000000E+00
  0.00000000E+00  0.00000000E+00  0.00000000E+00
  0.00000000E+00  0.00000000E+00  0.00000000E+00
  0.00000000E+00  0.00000000E+00  0.00000000E+00
