Li24 P4 S20 Cl4                         
   1.00000000000000     
    10.0247498456476425    0.0000000000000000    0.0000000000000000
     0.0000000000000000   10.0247498456476425    0.0000000000000000
     0.0000000000000000    0.0000000000000000   10.0247498456476425
   Li   P    S    Cl
    24     4    20     4
Direct
  0.9768370026924590  0.2497905667041919  0.2501408980387106
  0.9770135338848902  0.7495398065306580  0.7503985344811402
  0.0230927639103480  0.2500680279329849  0.7498205445452463
  0.0230927221016028  0.7500039883869667  0.2499722897003565
  0.2500000000000000  0.2500000000000000  0.9766754012903572
  0.2500000000000000  0.7500000000000000  0.0234812923672200
  0.7500000000000000  0.2500000000000000  0.0231192596261492
  0.7500000000000000  0.7500000000000000  0.9767696536313142
  0.2500447785792278  0.9767530485687579  0.2498601690062554
  0.2498861863914037  0.0233274237984231  0.7495749214828960
  0.7503755507252921  0.9767123169483397  0.7501953570264258
  0.7499975738864817  0.0232518650132306  0.2498743917071900
  0.2500000000000000  0.7500000000000000  0.4768297349946063
  0.2500000000000000  0.2500000000000000  0.5231663932306450
  0.7500000000000000  0.7500000000000000  0.5233377450671362
  0.7500000000000000  0.2500000000000000  0.4766201167879376
  0.2501138136085963  0.4766725762015769  0.7495749214828960
  0.2499552214207722  0.5232469514312492  0.2498601690062554
  0.7500024261135183  0.4767481349867694  0.2498743917071900
  0.7496244492747079  0.5232876830516603  0.7501953570264258
  0.4769072360896520  0.2499319720670151  0.7498205445452463
  0.4769072778983972  0.7499960116130333  0.2499722897003565
  0.5231629973075410  0.2502094332958081  0.2501408980387106
  0.5229864661151098  0.7504601934693420  0.7503985344811402
  0.5000496125620573  0.5001092723122312  0.5000021502915737
  0.4999001746775519  0.0001624318120382  0.0000551386197354
  0.0000998253224481  0.4998375681879618  0.0000551386197354
  0.9999503874379427  0.9998907276877688  0.5000021502915737
  0.1179061666695157  0.8817187927490513  0.6181410627542074
  0.1182094712727019  0.1178871163242148  0.3819638317883353
  0.8817484613620962  0.8818923974770678  0.3818782016597588
  0.8818158880434376  0.1180695274011789  0.6179563489268171
  0.8819528471576794  0.6180259211095026  0.1179769455643014
  0.8818843221868191  0.3819745113814205  0.8818193508961353
  0.1186156556524918  0.6177138589926843  0.8821438662177818
  0.1180369202458689  0.3816456926311357  0.1182070838709661
  0.6181156778131809  0.1180254886185795  0.8818193508961353
  0.6180471528423206  0.8819740788904974  0.1179769455643014
  0.3819630797541311  0.1183543073688643  0.1182070838709661
  0.3813843443475082  0.8822861410073157  0.8821438662177818
  0.6182515386379038  0.6181076025229322  0.3818782016597588
  0.6181841119565624  0.3819304725988211  0.6179563489268171
  0.3820938333304844  0.6182812072509487  0.6181410627542074
  0.3817905287272981  0.3821128836757852  0.3819638317883353
  0.7500000000000000  0.7500000000000000  0.7500614098545947
  0.7500000000000000  0.2500000000000000  0.2498860655839883
  0.2500000000000000  0.7500000000000000  0.2501263995108171
  0.2500000000000000  0.2500000000000000  0.7499112315299313
  0.9999531702986677  0.9998844106946218  0.0000130128141216
  0.0001862575165610  0.4998834957161847  0.5000135488707714
  0.4998137424834390  0.0001165042838153  0.5000135488707714
  0.5000468297013323  0.5001155893053782  0.0000130128141216
 
  0.00000000E+00  0.00000000E+00  0.00000000E+00
  0.00000000E+00  0.00000000E+00  0.00000000E+00
  0.00000000E+00  0.00000000E+00  0.00000000E+00
  0.00000000E+00  0.00000000E+00  0.00000000E+00
  0.00000000E+00  0.00000000E+00  0.00000000E+00
  0.00000000E+00  0.00000000E+00  0.00000000E+00
  0.00000000E+00  0.00000000E+00  0.00000000E+00
  0.00000000E+00  0.00000000E+00  0.00000000E+00
  0.00000000E+00  0.00000000E+00  0.00000000E+00
  0.00000000E+00  0.00000000E+00  0.00000000E+00
  0.00000000E+00  0.00000000E+00  0.00000000E+00
  0.00000000E+00  0.00000000E+00  0.00000000E+00
  0.00000000E+00  0.00000000E+00  0.00000000E+00
  0.00000000E+00  0.00000000E+00  0.00000000E+00
  0.00000000E+00  0.00000000E+00  0.00000000E+00
  0.00000000E+00  0.00000000E+00  0.00000000E+00
  0.00000000E+00  0.00000000E+00  0.00000000E+00
  0.00000000E+00  0.00000000E+00  0.00000000E+00
  0.00000000E+00  0.00000000E+00  0.00000000E+00
  0.00000000E+00  0.00000000E+00  0.00000000E+00
  0.00000000E+00  0.00000000E+00  0.00000000E+00
  0.00000000E+00  0.00000000E+00  0.00000000E+00
  0.00000000E+00  0.00000000E+00  0.00000000E+00
  0.00000000E+00  0.00000000E+00  0.00000000E+00
  0.00000000E+00  0.00000000E+00  0.00000000E+00
  0.00000000E+00  0.00000000E+00  0.00000000E+00
  0.00000000E+00  0.00000000E+00  0.00000000E+00
  0.00000000E+00  0.00000000E+00  0.00000000E+00
  0.00000000E+00  0.00000000E+00  0.00000000E+00
  0.00000000E+00  0.00000000E+00  0.00000000E+00
  0.00000000E+00  0.00000000E+00  0.00000000E+00
  0.00000000E+00  0.00000000E+00  0.00000000E+00
  0.00000000E+00  0.00000000E+00  0.00000000E+00
  0.00000000E+00  0.00000000E+00  0.00000000E+00
  0.00000000E+00  0.00000000E+00  0.00000000E+00
  0.00000000E+00  0.00000000E+00  0.00000000E+00
  0.00000000E+00  0.00000000E+00  0.00000000E+00
  0.00000000E+00  0.00000000E+00  0.00000000E+00
  0.00000000E+00  0.00000000E+00  0.00000000E+00
  0.00000000E+00  0.00000000E+00  0.00000000E+00
  0.00000000E+00  0.00000000E+00  0.00000000E+00
  0.00000000E+00  0.00000000E+00  0.00000000E+00
  0.00000000E+00  0.00000000E+00  0.00000000E+00
  0.00000000E+00  0.00000000E+00  0.00000000E+00
  0.00000000E+00  0.00000000E+00  0.00000000E+00
  0.00000000E+00  0.00000000E+00  0.00000000E+00
  0.00000000E+00  0.00000000E+00  0.00000000E+00
  0.00000000E+00  0.00000000E+00  0.00000000E+00
  0.00000000E+00  0.00000000E+00  0.00000000E+00
  0.00000000E+00  0.00000000E+00  0.00000000E+00
  0.00000000E+00  0.00000000E+00  0.00000000E+00
  0.00000000E+00  0.00000000E+00  0.00000000E+00
