Generated by IonExplorer 2.0
1.0
       10.2794980000        0.0000000000        0.0000000000
        0.0000000000       10.2794980000        0.0000000000
        0.0000000000        0.0000000000       10.2794980000
   Li    P    S   Cl
   27    4   20    4
Direct
    0.4537800000    0.7500000000    0.7500000000
    0.4537800000    0.2500000000    0.2500000000
    0.7268900000    0.7500000000    0.0231100000
    0.7268900000    0.2500000000    0.9768900000
    0.2268900000    0.7500000000    0.9768900000
    0.2268900000    0.2500000000    0.0231100000
    0.7268900000    0.5231100000    0.2500000000
    0.7268900000    0.4768900000    0.7500000000
    0.2268900000    0.5231100000    0.7500000000
    0.2268900000    0.4768900000    0.2500000000
    0.7268900000    0.2500000000    0.5231100000
    0.7268900000    0.7500000000    0.4768900000
    0.2268900000    0.2500000000    0.4768900000
    0.2268900000    0.7500000000    0.5231100000
    0.7268900000    0.0231100000    0.7500000000
    0.7268900000    0.9768900000    0.2500000000
    0.2268900000    0.0231100000    0.2500000000
    0.2268900000    0.9768900000    0.7500000000
    0.0000000000    0.7500000000    0.7500000000
    0.0000000000    0.2500000000    0.2500000000
    0.9537800000    0.7500000000    0.2500000000
    0.9537800000    0.2500000000    0.7500000000
    0.4925752663    0.7511336273    0.2488663727
    0.6556192400    0.6040634200    0.3959365800
    0.7661324200    0.5000000000    0.5000000000
    0.6556192400    0.3959365800    0.6040634200
    0.4925752663    0.2511336273    0.7488663727
    0.9768900000    0.0000000000    0.5000000000
    0.9768900000    0.5000000000    0.0000000000
    0.4768900000    0.0000000000    0.0000000000
    0.4768900000    0.5000000000    0.5000000000
    0.0924100000    0.1155200000    0.6155200000
    0.0924100000    0.8844800000    0.3844800000
    0.8613700000    0.1155200000    0.3844800000
    0.8613700000    0.8844800000    0.6155200000
    0.0924100000    0.6155200000    0.1155200000
    0.0924100000    0.3844800000    0.8844800000
    0.8613700000    0.6155200000    0.8844800000
    0.8613700000    0.3844800000    0.1155200000
    0.5924100000    0.1155200000    0.1155200000
    0.5924100000    0.8844800000    0.8844800000
    0.3613700000    0.1155200000    0.8844800000
    0.3613700000    0.8844800000    0.1155200000
    0.5924100000    0.6155200000    0.6155200000
    0.5924100000    0.3844800000    0.3844800000
    0.3613700000    0.6155200000    0.3844800000
    0.3613700000    0.3844800000    0.6155200000
    0.7268900000    0.7500000000    0.2500000000
    0.7268900000    0.2500000000    0.7500000000
    0.2268900000    0.7500000000    0.7500000000
    0.2268900000    0.2500000000    0.2500000000
    0.4768900000    0.5000000000    0.0000000000
    0.4768900000    0.0000000000    0.5000000000
    0.9768900000    0.5000000000    0.5000000000
    0.9768900000    0.0000000000    0.0000000000
