Li24 P4 S20 Cl4                         
   1.00000000000000     
     9.6500424303568479    0.0000000000000000    0.0000000000000000
     0.0000000000000000    9.6500424303568479    0.0000000000000000
     0.0000000000000000    0.0000000000000000    9.6500424303568479
   Li   P    S    Cl
    24     4    20     4
Direct
  0.9885352132223788  0.1995866721036476  0.2117782860449453
  0.9540140162118153  0.6892457415552772  0.6673901559872841
  0.0145780417824108  0.1805778514684865  0.7935170546484204
  0.0472464960151686  0.8246571565859697  0.1889879976446830
  0.2140419801707377  0.1667712188428757  0.9812762331681779
  0.2887171876283959  0.6918149495582231  0.0163120169781019
  0.7894105110106595  0.1968311713445196  0.0241358200453780
  0.8387877706574584  0.8196799932125550  0.9592851394212498
  0.3469797031597954  0.9646789765652953  0.3204892303313520
  0.3285940137175227  0.0379011956088801  0.6759400938873613
  0.7065106547263567  0.9934764281137661  0.7067964698177409
  0.7095942817786934  0.0196204026203068  0.2891065672858383
  0.1982987567327336  0.7250671941970928  0.4764072254495105
  0.1825402966792018  0.2913214263979963  0.5219850537047903
  0.6791026845392515  0.7929662227011908  0.5179324290234472
  0.6618759301922063  0.2190282778162516  0.4749125887001379
  0.1999895795019140  0.4846531557080313  0.7178519096513091
  0.2095639188291834  0.5187100388338922  0.2948928906050812
  0.8430372751335395  0.4688320076045450  0.3329315263624541
  0.7039510560189453  0.5377037558173624  0.8339987985757807
  0.4538788973120096  0.3313834995573894  0.8249394119366422
  0.4976991509666717  0.6891940085095546  0.1965977541867187
  0.5434491589957916  0.3448693109232256  0.1858946328442076
  0.5116694039649498  0.7307606074869398  0.8060765398571067
  0.5010460253629512  0.5017285413227974  0.5105092118172081
  0.5004384297687088  0.0091895278675076  0.0047193163934226
  0.9994463171351388  0.5009895988783569  0.0018937604911791
  0.9999725374254633  0.9994367008780948  0.5004505758396753
  0.1138162328656521  0.8894229887583375  0.6419260605326478
  0.1391603598967669  0.1013293836625038  0.3746347151511756
  0.8851492176589563  0.8646820164559952  0.3822852102884811
  0.8754582924977756  0.1406324234945688  0.5991615781574160
  0.8839083503611116  0.6244404572027916  0.1305225919916737
  0.8794922604632343  0.3770295346169181  0.8784020680777849
  0.0996756320417657  0.6408170729267747  0.8746898262008810
  0.1350601187772660  0.3785371677850142  0.1113033731573132
  0.6076419391516955  0.1382207205273668  0.8738559554872729
  0.6337118763379701  0.8773709113566586  0.1054979634261943
  0.3989111617959972  0.1339285315747542  0.1428900928099491
  0.3569727207525105  0.9006127871515315  0.8904661437522146
  0.6332229135777887  0.6035749603501720  0.3773039262093045
  0.6205765059217022  0.3911659375993936  0.6456150729750022
  0.3780074099060446  0.6358282129254430  0.6210104395008854
  0.3869496668926852  0.3678266251259494  0.3907786795238462
  0.7402471358756422  0.7609862302126410  0.7479796445517443
  0.7586344351835160  0.2527863222910933  0.2542164143334897
  0.2687007310292493  0.7469526586483305  0.2485472525205623
  0.2406053530614409  0.2513122552940720  0.7526118681137268
  0.9897069778842429  0.0299839647500116  0.0114611394225893
  0.0448610670664503  0.5122140400680849  0.4971016793346349
  0.5313154201882708  0.9992602944389015  0.4987869651433631
  0.4948219921717769  0.5291334007026847  0.9895373786388573
 
  0.00000000E+00  0.00000000E+00  0.00000000E+00
  0.00000000E+00  0.00000000E+00  0.00000000E+00
  0.00000000E+00  0.00000000E+00  0.00000000E+00
  0.00000000E+00  0.00000000E+00  0.00000000E+00
  0.00000000E+00  0.00000000E+00  0.00000000E+00
  0.00000000E+00  0.00000000E+00  0.00000000E+00
  0.00000000E+00  0.00000000E+00  0.00000000E+00
  0.00000000E+00  0.00000000E+00  0.00000000E+00
  0.00000000E+00  0.00000000E+00  0.00000000E+00
  0.00000000E+00  0.00000000E+00  0.00000000E+00
  0.00000000E+00  0.00000000E+00  0.00000000E+00
  0.00000000E+00  0.00000000E+00  0.00000000E+00
  0.00000000E+00  0.00000000E+00  0.00000000E+00
  0.00000000E+00  0.00000000E+00  0.00000000E+00
  0.00000000E+00  0.00000000E+00  0.00000000E+00
  0.00000000E+00  0.00000000E+00  0.00000000E+00
  0.00000000E+00  0.00000000E+00  0.00000000E+00
  0.00000000E+00  0.00000000E+00  0.00000000E+00
  0.00000000E+00  0.00000000E+00  0.00000000E+00
  0.00000000E+00  0.00000000E+00  0.00000000E+00
  0.00000000E+00  0.00000000E+00  0.00000000E+00
  0.00000000E+00  0.00000000E+00  0.00000000E+00
  0.00000000E+00  0.00000000E+00  0.00000000E+00
  0.00000000E+00  0.00000000E+00  0.00000000E+00
  0.00000000E+00  0.00000000E+00  0.00000000E+00
  0.00000000E+00  0.00000000E+00  0.00000000E+00
  0.00000000E+00  0.00000000E+00  0.00000000E+00
  0.00000000E+00  0.00000000E+00  0.00000000E+00
  0.00000000E+00  0.00000000E+00  0.00000000E+00
  0.00000000E+00  0.00000000E+00  0.00000000E+00
  0.00000000E+00  0.00000000E+00  0.00000000E+00
  0.00000000E+00  0.00000000E+00  0.00000000E+00
  0.00000000E+00  0.00000000E+00  0.00000000E+00
  0.00000000E+00  0.00000000E+00  0.00000000E+00
  0.00000000E+00  0.00000000E+00  0.00000000E+00
  0.00000000E+00  0.00000000E+00  0.00000000E+00
  0.00000000E+00  0.00000000E+00  0.00000000E+00
  0.00000000E+00  0.00000000E+00  0.00000000E+00
  0.00000000E+00  0.00000000E+00  0.00000000E+00
  0.00000000E+00  0.00000000E+00  0.00000000E+00
  0.00000000E+00  0.00000000E+00  0.00000000E+00
  0.00000000E+00  0.00000000E+00  0.00000000E+00
  0.00000000E+00  0.00000000E+00  0.00000000E+00
  0.00000000E+00  0.00000000E+00  0.00000000E+00
  0.00000000E+00  0.00000000E+00  0.00000000E+00
  0.00000000E+00  0.00000000E+00  0.00000000E+00
  0.00000000E+00  0.00000000E+00  0.00000000E+00
  0.00000000E+00  0.00000000E+00  0.00000000E+00
  0.00000000E+00  0.00000000E+00  0.00000000E+00
  0.00000000E+00  0.00000000E+00  0.00000000E+00
  0.00000000E+00  0.00000000E+00  0.00000000E+00
  0.00000000E+00  0.00000000E+00  0.00000000E+00
