Li24 P4 S20 Cl4                         
   1.00000000000000     
     9.6500424303568479    0.0000000000000000    0.0000000000000000
     0.0000000000000000    9.6500424303568479    0.0000000000000000
     0.0000000000000000    0.0000000000000000    9.6500424303568479
   Li   P    S    Cl
    24     4    20     4
Direct
  0.9885334525084488  0.1995810729170060  0.2117799302155277
  0.9540166843561835  0.6892429054069069  0.6673929842631381
  0.0145775181504391  0.1805855477017246  0.7935202740783609
  0.0472478411247934  0.8246595640507834  0.1889865983976549
  0.2140398692817129  0.1667742211958227  0.9812768966794678
  0.2887192631920854  0.6918176974381538  0.0163110521943111
  0.7894119582028267  0.1968315408794297  0.0241370673541894
  0.8387843207023309  0.8196809919942183  0.9592864732005495
  0.3469795015489510  0.9646795337330332  0.3204928567920504
  0.3285907580700496  0.0379015143388060  0.6759368741850480
  0.7065078755229806  0.9934745640692668  0.7067984758884336
  0.7095861767889531  0.0196207993573054  0.2891074019752438
  0.1983000001677908  0.7250654943537924  0.4764059601561996
  0.1825419680135028  0.2913250110087517  0.5219848074232303
  0.6791055179606857  0.7929661624520818  0.5179318223272986
  0.6618908643123191  0.2190237742900223  0.4749169962449074
  0.1999929498802757  0.4846541312478649  0.7178528614142508
  0.2095589164733340  0.5187129884691402  0.2948903368708642
  0.8430389616478422  0.4688320355187372  0.3329303857248647
  0.7039478160482702  0.5377010423765611  0.8339891598606499
  0.4538786547542273  0.3313824766252580  0.8249403703635636
  0.4976984706792393  0.6891890163915946  0.1965972217354306
  0.5434478517110719  0.3448649495261833  0.1858924428243611
  0.5116720072843464  0.7307593824520353  0.8060779247121417
  0.5010407268162851  0.5017290546677486  0.5105078440663462
  0.5004398519632929  0.0091859498088525  0.0047189023458500
  0.9994490030469905  0.5009941413017884  0.0018924935601987
  0.9999725660270187  0.9994363458925335  0.5004501198928253
  0.1138171186814603  0.8894206589948368  0.6419234991718099
  0.1391597441136696  0.1013305018369408  0.3746385654299615
  0.8851492302877588  0.8646860354504895  0.3822838064483562
  0.8754608799474894  0.1406281191196825  0.5991673184258985
  0.8839095101760819  0.6244416308288976  0.1305234660321730
  0.8794891829303779  0.3770325725051578  0.8784039766236802
  0.0996759578379667  0.6408143394468055  0.8746923752863864
  0.1350542585195313  0.3785355767314087  0.1113050112721368
  0.6076419535873256  0.1382209469460918  0.8738597710026070
  0.6337081213064408  0.8773706256705722  0.1054981281053315
  0.3989085632759100  0.1339264340757893  0.1428887129735656
  0.3569746811234182  0.9006141666331828  0.8904629694014048
  0.6332245951671212  0.6035741321443879  0.3773049529574735
  0.6205731582210348  0.3911614930286191  0.6456105055672623
  0.3780107026316202  0.6358277596400725  0.6210095013460091
  0.3869483057975529  0.3678324039402412  0.3907744737052354
  0.7402487263511901  0.7609847684506548  0.7479787985470381
  0.7586339468377972  0.2527854487363328  0.2542169977779380
  0.2687011287081162  0.7469537284376102  0.2485464570397582
  0.2406050765452150  0.2513130922015137  0.7526120139406345
  0.9897054105403953  0.0299889405986136  0.0114622185369129
  0.0448635108704352  0.5122150058705088  0.4971024948085656
  0.5313196188269558  0.9992607779843254  0.4987892403690140
  0.4948223314784528  0.5291334612618854  0.9895329404841036
 
  0.00000000E+00  0.00000000E+00  0.00000000E+00
  0.00000000E+00  0.00000000E+00  0.00000000E+00
  0.00000000E+00  0.00000000E+00  0.00000000E+00
  0.00000000E+00  0.00000000E+00  0.00000000E+00
  0.00000000E+00  0.00000000E+00  0.00000000E+00
  0.00000000E+00  0.00000000E+00  0.00000000E+00
  0.00000000E+00  0.00000000E+00  0.00000000E+00
  0.00000000E+00  0.00000000E+00  0.00000000E+00
  0.00000000E+00  0.00000000E+00  0.00000000E+00
  0.00000000E+00  0.00000000E+00  0.00000000E+00
  0.00000000E+00  0.00000000E+00  0.00000000E+00
  0.00000000E+00  0.00000000E+00  0.00000000E+00
  0.00000000E+00  0.00000000E+00  0.00000000E+00
  0.00000000E+00  0.00000000E+00  0.00000000E+00
  0.00000000E+00  0.00000000E+00  0.00000000E+00
  0.00000000E+00  0.00000000E+00  0.00000000E+00
  0.00000000E+00  0.00000000E+00  0.00000000E+00
  0.00000000E+00  0.00000000E+00  0.00000000E+00
  0.00000000E+00  0.00000000E+00  0.00000000E+00
  0.00000000E+00  0.00000000E+00  0.00000000E+00
  0.00000000E+00  0.00000000E+00  0.00000000E+00
  0.00000000E+00  0.00000000E+00  0.00000000E+00
  0.00000000E+00  0.00000000E+00  0.00000000E+00
  0.00000000E+00  0.00000000E+00  0.00000000E+00
  0.00000000E+00  0.00000000E+00  0.00000000E+00
  0.00000000E+00  0.00000000E+00  0.00000000E+00
  0.00000000E+00  0.00000000E+00  0.00000000E+00
  0.00000000E+00  0.00000000E+00  0.00000000E+00
  0.00000000E+00  0.00000000E+00  0.00000000E+00
  0.00000000E+00  0.00000000E+00  0.00000000E+00
  0.00000000E+00  0.00000000E+00  0.00000000E+00
  0.00000000E+00  0.00000000E+00  0.00000000E+00
  0.00000000E+00  0.00000000E+00  0.00000000E+00
  0.00000000E+00  0.00000000E+00  0.00000000E+00
  0.00000000E+00  0.00000000E+00  0.00000000E+00
  0.00000000E+00  0.00000000E+00  0.00000000E+00
  0.00000000E+00  0.00000000E+00  0.00000000E+00
  0.00000000E+00  0.00000000E+00  0.00000000E+00
  0.00000000E+00  0.00000000E+00  0.00000000E+00
  0.00000000E+00  0.00000000E+00  0.00000000E+00
  0.00000000E+00  0.00000000E+00  0.00000000E+00
  0.00000000E+00  0.00000000E+00  0.00000000E+00
  0.00000000E+00  0.00000000E+00  0.00000000E+00
  0.00000000E+00  0.00000000E+00  0.00000000E+00
  0.00000000E+00  0.00000000E+00  0.00000000E+00
  0.00000000E+00  0.00000000E+00  0.00000000E+00
  0.00000000E+00  0.00000000E+00  0.00000000E+00
  0.00000000E+00  0.00000000E+00  0.00000000E+00
  0.00000000E+00  0.00000000E+00  0.00000000E+00
  0.00000000E+00  0.00000000E+00  0.00000000E+00
  0.00000000E+00  0.00000000E+00  0.00000000E+00
  0.00000000E+00  0.00000000E+00  0.00000000E+00
