Li24 P4 S20 Cl4                         
   1.00000000000000     
     9.7155388861752758    0.0000000000000000    0.0000000000000000
     0.0000000000000000    9.7155388861752758    0.0000000000000000
     0.0000000000000000    0.0000000000000000    9.7155388861752758
   Li   P    S    Cl
    24     4    20     4
Direct
  0.9711530970141162  0.2678801254411922  0.2319854684741957
  0.9844716276599578  0.7679969386927457  0.7318686552226350
  0.0249267184171952  0.1891824031474897  0.8368966789294153
  0.0249267184171881  0.6629689149859724  0.3106831907678981
  0.3371103218560808  0.3001863257882031  0.9684747808485533
  0.2170140997459437  0.7757528358247248  0.0280840967648467
  0.6855309840585984  0.2992497943638716  0.0141914724512008
  0.8250930335805819  0.8149197145680233  0.9751513999468735
  0.1798405491656483  0.9716679509140328  0.2025284501232745
  0.2237197174049894  0.0114325214044079  0.8096603705804019
  0.7012092471447614  0.9749575424421442  0.7079803689593834
  0.7888713215754615  0.0246632532956344  0.2267778772791296
  0.2237197174049894  0.6902052233349859  0.4884330725109728
  0.1798405491656554  0.2973371437921133  0.5281976430013550
  0.7012092471447756  0.7918852249560043  0.5249080514732436
  0.7888713215754686  0.2730877166362582  0.4752023406197462
  0.2170140997459437  0.4717814971505340  0.7241127580906630
  0.3371103218560808  0.5313908130668273  0.1996792681271776
  0.6855309840585984  0.4856741214641727  0.2006157995515161
  0.8250930335805819  0.5247141939685143  0.6849458793473645
  0.4661461361225289  0.1782091822701604  0.6737835357369559
  0.4661461361225289  0.8260820581784105  0.3216564116452202
  0.5231749530769828  0.1758663027294597  0.3239992911859352
  0.5484772703413945  0.6558387329104334  0.8440268610049544
  0.5037307751010917  0.4937281991313295  0.5113312139014566
  0.5037307751010917  0.9885343800139240  0.0061373947840654
  0.0028641354606813  0.5007660066929656  0.9990995872224222
  0.0094795956165934  0.9982217077866525  0.5016438861287210
  0.1516572865678875  0.8882198113282811  0.6116457825871067
  0.1126079834646244  0.1290658090129679  0.3707997849024341
  0.8915044669238426  0.8674804049843257  0.3846627646223295
  0.8915044669238426  0.1152028292930583  0.6323851889310266
  0.8794514480316595  0.6195061980325743  0.1223442679315210
  0.8794514480316595  0.3775213259838668  0.8803593958828134
  0.1185582159245915  0.6256683925064750  0.8741972014088986
  0.1388297791274470  0.3861984061045412  0.1136671878108466
  0.6132984146658440  0.1174360777141988  0.8786547643000979
  0.6306644929840073  0.8705135190143753  0.1272660294832014
  0.3778450514378846  0.1069178580074445  0.1280919437310429
  0.3946737414711591  0.8573561231608848  0.8826355776995255
  0.6132984146658511  0.6212108296152898  0.3824295162011890
  0.6306644929840073  0.3725995644321793  0.6293520749010124
  0.3946737414711591  0.6172300162158623  0.6425094707545029
  0.3778450514378917  0.3717736501843378  0.3929477359079361
  0.7546643943040166  0.7464959399317441  0.7533696539836294
  0.7397218876330078  0.2544894706243172  0.2453761232910706
  0.2475822293564123  0.7463568945133634  0.2589748798665940
  0.2475822293564123  0.2408907140488009  0.7535086994020173
  0.0299591049477484  0.9793773383801314  0.9916678771555467
  0.0299591049477555  0.5081977167598410  0.5204882555352421
  0.5395734348355329  0.9959766462795121  0.5038889476358686
  0.5082692490903830  0.4795320807203906  0.0203335131949901
 
  0.00000000E+00  0.00000000E+00  0.00000000E+00
  0.00000000E+00  0.00000000E+00  0.00000000E+00
  0.00000000E+00  0.00000000E+00  0.00000000E+00
  0.00000000E+00  0.00000000E+00  0.00000000E+00
  0.00000000E+00  0.00000000E+00  0.00000000E+00
  0.00000000E+00  0.00000000E+00  0.00000000E+00
  0.00000000E+00  0.00000000E+00  0.00000000E+00
  0.00000000E+00  0.00000000E+00  0.00000000E+00
  0.00000000E+00  0.00000000E+00  0.00000000E+00
  0.00000000E+00  0.00000000E+00  0.00000000E+00
  0.00000000E+00  0.00000000E+00  0.00000000E+00
  0.00000000E+00  0.00000000E+00  0.00000000E+00
  0.00000000E+00  0.00000000E+00  0.00000000E+00
  0.00000000E+00  0.00000000E+00  0.00000000E+00
  0.00000000E+00  0.00000000E+00  0.00000000E+00
  0.00000000E+00  0.00000000E+00  0.00000000E+00
  0.00000000E+00  0.00000000E+00  0.00000000E+00
  0.00000000E+00  0.00000000E+00  0.00000000E+00
  0.00000000E+00  0.00000000E+00  0.00000000E+00
  0.00000000E+00  0.00000000E+00  0.00000000E+00
  0.00000000E+00  0.00000000E+00  0.00000000E+00
  0.00000000E+00  0.00000000E+00  0.00000000E+00
  0.00000000E+00  0.00000000E+00  0.00000000E+00
  0.00000000E+00  0.00000000E+00  0.00000000E+00
  0.00000000E+00  0.00000000E+00  0.00000000E+00
  0.00000000E+00  0.00000000E+00  0.00000000E+00
  0.00000000E+00  0.00000000E+00  0.00000000E+00
  0.00000000E+00  0.00000000E+00  0.00000000E+00
  0.00000000E+00  0.00000000E+00  0.00000000E+00
  0.00000000E+00  0.00000000E+00  0.00000000E+00
  0.00000000E+00  0.00000000E+00  0.00000000E+00
  0.00000000E+00  0.00000000E+00  0.00000000E+00
  0.00000000E+00  0.00000000E+00  0.00000000E+00
  0.00000000E+00  0.00000000E+00  0.00000000E+00
  0.00000000E+00  0.00000000E+00  0.00000000E+00
  0.00000000E+00  0.00000000E+00  0.00000000E+00
  0.00000000E+00  0.00000000E+00  0.00000000E+00
  0.00000000E+00  0.00000000E+00  0.00000000E+00
  0.00000000E+00  0.00000000E+00  0.00000000E+00
  0.00000000E+00  0.00000000E+00  0.00000000E+00
  0.00000000E+00  0.00000000E+00  0.00000000E+00
  0.00000000E+00  0.00000000E+00  0.00000000E+00
  0.00000000E+00  0.00000000E+00  0.00000000E+00
  0.00000000E+00  0.00000000E+00  0.00000000E+00
  0.00000000E+00  0.00000000E+00  0.00000000E+00
  0.00000000E+00  0.00000000E+00  0.00000000E+00
  0.00000000E+00  0.00000000E+00  0.00000000E+00
  0.00000000E+00  0.00000000E+00  0.00000000E+00
  0.00000000E+00  0.00000000E+00  0.00000000E+00
  0.00000000E+00  0.00000000E+00  0.00000000E+00
  0.00000000E+00  0.00000000E+00  0.00000000E+00
  0.00000000E+00  0.00000000E+00  0.00000000E+00
