Li24 P4 S20 Cl4                         
   1.00000000000000     
     9.7155388861752758    0.0000000000000000    0.0000000000000000
     0.0000000000000000    9.7155388861752758    0.0000000000000000
     0.0000000000000000    0.0000000000000000    9.7155388861752758
   Li   P    S    Cl
    24     4    20     4
Direct
  0.9711404003995554  0.2678732916864561  0.2319923022289316
  0.9844835159613297  0.7679888073930670  0.7318767865223137
  0.0249339842042033  0.1891865434777955  0.8368940241610190
  0.0249339842041962  0.6629715697543688  0.3106790504375923
  0.3370980163896462  0.3001899800840917  0.9684776797414827
  0.2170137126086900  0.7757629056357942  0.0280805745446884
  0.6855313558386271  0.2992482758552626  0.0141888238733827
  0.8251003624031625  0.8149235136086617  0.9751544255182125
  0.1798404527888380  0.9716691708820946  0.2025261033297312
  0.2237262230259773  0.0114358829353947  0.8096521055714661
  0.7012209308062367  0.9749532197550508  0.7079874296904052
  0.7887970791160512  0.0246584542425552  0.2268494488818646
  0.2237262230259773  0.6902134883439217  0.4884297109799860
  0.1798404527888451  0.2973394905856566  0.5281964230332932
  0.7012209308062509  0.7918781642249826  0.5249123741603370
  0.7887970791160583  0.2730161450335231  0.4752071396728255
  0.2170137126086900  0.4717850193706923  0.7241026882795936
  0.3370980163896462  0.5313879141738980  0.1996756138312890
  0.6855313558386271  0.4856767700419908  0.2006173180601252
  0.8251003624031625  0.5247111683971752  0.6849420803067261
  0.4661511936054339  0.1782154478613407  0.6737893304262741
  0.4661511936054339  0.8260762634890924  0.3216501460540400
  0.5231534874944259  0.1758831688637272  0.3239824250516676
  0.5484832795861081  0.6558402337604718  0.8440253601549159
  0.5037379569281342  0.4937368893583951  0.5113344053463535
  0.5037379569281342  0.9885311885690271  0.0061287045569998
  0.0028631815107474  0.5007671289336102  0.9990984649817776
  0.0094896082657172  0.9982219509711854  0.5016436429441882
  0.1516519880143221  0.8882219611734072  0.6116436327419805
  0.1126046786595936  0.1290662745822928  0.3707993193331092
  0.8915104191893448  0.8674833961035020  0.3846687017042711
  0.8915104191893448  0.1151968922111166  0.6323821978118502
  0.8794567436612866  0.6195009424955629  0.1223435332672622
  0.8794567436612866  0.3775220606481255  0.8803646514198249
  0.1185659105037544  0.6256570545934466  0.8742085393219270
  0.1388166729263887  0.3861918377993590  0.1136737561160288
  0.6132994980803517  0.1174307833766974  0.8786531628400454
  0.6306559779360867  0.8705128934857811  0.1272548877251154
  0.3778417864532173  0.1069129104939037  0.1280765551716883
  0.3946786297201683  0.8573588871459492  0.8826291234760006
  0.6132994980803588  0.6212124310753424  0.3824348105386903
  0.6306559779360867  0.3726107061902653  0.6293527004296067
  0.3946786297201683  0.6172364704393871  0.6425067067694386
  0.3778417864532244  0.3717890387436924  0.3929526834214769
  0.7546766853159141  0.7464965011102720  0.7533690928051016
  0.7397108029302473  0.2544912512400046  0.2453743426753832
  0.2475868090590296  0.7463588613089982  0.2589702743949047
  0.2475868090590296  0.2408953195204901  0.7535067326063825
  0.0299913584539553  0.9793661326347163  0.9916430281294808
  0.0299913584539624  0.5082225657859070  0.5204994612806573
  0.5395908111502052  0.9959901248277063  0.5038754690876743
  0.5082706148449034  0.4795310975247418  0.0203344963906389
 
  0.00000000E+00  0.00000000E+00  0.00000000E+00
  0.00000000E+00  0.00000000E+00  0.00000000E+00
  0.00000000E+00  0.00000000E+00  0.00000000E+00
  0.00000000E+00  0.00000000E+00  0.00000000E+00
  0.00000000E+00  0.00000000E+00  0.00000000E+00
  0.00000000E+00  0.00000000E+00  0.00000000E+00
  0.00000000E+00  0.00000000E+00  0.00000000E+00
  0.00000000E+00  0.00000000E+00  0.00000000E+00
  0.00000000E+00  0.00000000E+00  0.00000000E+00
  0.00000000E+00  0.00000000E+00  0.00000000E+00
  0.00000000E+00  0.00000000E+00  0.00000000E+00
  0.00000000E+00  0.00000000E+00  0.00000000E+00
  0.00000000E+00  0.00000000E+00  0.00000000E+00
  0.00000000E+00  0.00000000E+00  0.00000000E+00
  0.00000000E+00  0.00000000E+00  0.00000000E+00
  0.00000000E+00  0.00000000E+00  0.00000000E+00
  0.00000000E+00  0.00000000E+00  0.00000000E+00
  0.00000000E+00  0.00000000E+00  0.00000000E+00
  0.00000000E+00  0.00000000E+00  0.00000000E+00
  0.00000000E+00  0.00000000E+00  0.00000000E+00
  0.00000000E+00  0.00000000E+00  0.00000000E+00
  0.00000000E+00  0.00000000E+00  0.00000000E+00
  0.00000000E+00  0.00000000E+00  0.00000000E+00
  0.00000000E+00  0.00000000E+00  0.00000000E+00
  0.00000000E+00  0.00000000E+00  0.00000000E+00
  0.00000000E+00  0.00000000E+00  0.00000000E+00
  0.00000000E+00  0.00000000E+00  0.00000000E+00
  0.00000000E+00  0.00000000E+00  0.00000000E+00
  0.00000000E+00  0.00000000E+00  0.00000000E+00
  0.00000000E+00  0.00000000E+00  0.00000000E+00
  0.00000000E+00  0.00000000E+00  0.00000000E+00
  0.00000000E+00  0.00000000E+00  0.00000000E+00
  0.00000000E+00  0.00000000E+00  0.00000000E+00
  0.00000000E+00  0.00000000E+00  0.00000000E+00
  0.00000000E+00  0.00000000E+00  0.00000000E+00
  0.00000000E+00  0.00000000E+00  0.00000000E+00
  0.00000000E+00  0.00000000E+00  0.00000000E+00
  0.00000000E+00  0.00000000E+00  0.00000000E+00
  0.00000000E+00  0.00000000E+00  0.00000000E+00
  0.00000000E+00  0.00000000E+00  0.00000000E+00
  0.00000000E+00  0.00000000E+00  0.00000000E+00
  0.00000000E+00  0.00000000E+00  0.00000000E+00
  0.00000000E+00  0.00000000E+00  0.00000000E+00
  0.00000000E+00  0.00000000E+00  0.00000000E+00
  0.00000000E+00  0.00000000E+00  0.00000000E+00
  0.00000000E+00  0.00000000E+00  0.00000000E+00
  0.00000000E+00  0.00000000E+00  0.00000000E+00
  0.00000000E+00  0.00000000E+00  0.00000000E+00
  0.00000000E+00  0.00000000E+00  0.00000000E+00
  0.00000000E+00  0.00000000E+00  0.00000000E+00
  0.00000000E+00  0.00000000E+00  0.00000000E+00
  0.00000000E+00  0.00000000E+00  0.00000000E+00
