Li24 P4 S20 Cl4
   1.0000000000000000
     9.6601285933999996   0.0000000000000000   0.0000000000000000
     0.0000000000000000   9.6601285933999996   0.0000000000000000
     0.0000000000000000   0.0000000000000000   9.6601285933999996
   Li  P  S  Cl
   24  4  20  4
Direct
    0.1644940062000000   0.8882179992000000  -0.0811959948000000
    0.3070900140000000   0.0056000018000000   0.5385820152000000
    0.0280000010000000   0.4614180148000000   0.5385820152000000
    0.9833379866000000   0.6940259933999999   0.6940259933999999
    0.8672139879999999   0.3143760024000000   0.2022080036000000
    0.7000779988000000   0.6192460180000000   0.8988680126000000
    0.7108299729999999   0.4912500080000000   0.2108300030000000
    0.8271580096000000   0.9517819880000000   0.6492719886000000
    0.7900920156000000   0.1784559968000000   0.3600459992000000
    0.4410300078000000   0.8059740066000001   0.5061620056000000
    0.3070900140000000   0.0385819942000000   0.5055999994000000
    0.8070899840000000   0.0280000010000000   0.1929100010000000
    0.8215439792000000   0.9716820000000000   0.8215439792000000
    0.3376980006000000   0.8719139938000000   0.0493339954000000
    0.5053879974000000   0.4517820180000000   0.1832739982000000
    0.3672140000000000   0.3143760024000000   0.7022079940000000
    0.9685859915999999   0.5203000066000000   0.5314140084000001
    0.1856239976000000   0.5136180044000000   0.4830399928000000
    0.3379100026000000   0.3622780024000000   0.5589699861999999
    0.5055999994000000   0.9614179908000000   0.6929100160000000
    0.3507279994000000   0.8167259808000000   0.1956660084000000
    0.0385819942000000   0.0385819942000000   0.9720000030000000
    0.6059740186000000   0.2589700042000000  -0.0061620008000000
    0.5311799940000000   0.5337640168000000   0.2057059992000000
    0.5062582730000000   0.5052231548000000   0.4992938398000000
    0.5050300480000000   0.9972014972000001   0.0013717960000000
    0.0088113860000000   0.4987725672000000   0.0013216220000000
    0.0036460240000000   0.0018429380000000   0.5027494313999999
    0.1238680036000000   0.8877158288000000   0.6357597114000000
    0.1235932202000000   0.1302699330000000   0.3835166812000000
    0.8954881666000000   0.8701798082000000   0.3817528364000000
    0.8748162508000000   0.1210246564000000   0.6194722772000000
    0.8903348327999999   0.6217675568000000   0.1273843570000000
    0.8914519784000000   0.3773237708000000   0.8725767258000000
    0.1290317598000000   0.6292363522000000   0.8842377306000000
    0.1319262562000000   0.3777233480000000   0.1229216426000000
    0.6218045708000001   0.1130716296000000   0.8665746572000000
    0.6320375684000000   0.8751481536000000   0.1200096544000000
    0.3875125884000000   0.1266806170000000   0.1212519304000000
    0.3747288762000000   0.8686397551999999   0.8940600868000000
    0.6283594010000000   0.6329734564000000   0.3836009384000000
    0.6254709842000000   0.3714729964000000   0.6121770501999999
    0.3885913610000000   0.6245800376000000   0.6299093722000000
    0.3819106820000000   0.3892031194000000   0.3725492772000000
    0.7575384734000000   0.7465584162000000   0.7493767740000000
    0.7534374236000000   0.2485900966000000   0.2472847402000000
    0.2531618652000000   0.7558670046000000   0.2490702508000000
    0.2630610290000000   0.2525445580000000   0.7493500585999999
    0.9864075423999999   0.0105826434000000   0.0122148510000000
    0.0263118924000000   0.4953136444000000   0.5180179000000000
    0.4848987758000000   0.9860589626000000   0.5080052614000000
    0.5362061264000000   0.4942060830000000   0.0099237834000000