Li24 P4 S20 Cl4
   1.0000000000000000
     9.6509546785759568   0.0000000000000000   0.0000000000000000
     0.0000000000000000   9.6509546785759568   0.0000000000000000
     0.0000000000000000   0.0000000000000000   9.6509546785759568
   Li  P  S  Cl
   24  4  20  4
Direct
    0.9696760620513264   0.3432212089323226   0.3022490505216368
    0.9831577935658952   0.7632748820411239   0.7394451217004665
    0.0353924801904902   0.3145257346558449   0.6784340930222088
    0.0168940023334634   0.7457636391122687   0.2554385708435760
    0.1726694330914089   0.1816971115929846   0.9575201771265496
    0.1912518432036056   0.8113702002408179   0.0190845136145067
    0.8210502954140025   0.1830019806877905   0.0246346671394673
    0.8054772889310494   0.8131132785661723   0.9748649574931350
    0.2365961137552859   0.9923085060957209   0.2527381007577845
    0.3302904281442559   0.0300313672914670   0.6826254234422471
    0.6841185905271741   0.9572373016403182   0.6665728600290408
    0.7731442589442811   0.0186781070826535   0.2526845771826158
    0.1971570045914677   0.6793020711943002   0.4684969292006130
    0.2718787215281530   0.2518080192566549   0.5125404569591684
    0.8065268799814825   0.6618311537384820   0.5311239367809502
    0.7498943287743629   0.2367942052026457   0.4802425419826127
    0.2981666830682487   0.4836836079270788   0.7906880165041749
    0.3265760219055083   0.5451589461345664   0.1614995056369121
    0.6755672850689115   0.4656804018513608   0.1680196686587935
    0.7163755471642691   0.5129261454947549   0.8068429372914528
    0.4860431318259285   0.2874971736539167   0.8207524718639051
    0.4709313120029066   0.8124867796661793   0.3338571635174417
    0.5218493663752573   0.2059961564774836   0.2932163930053773
    0.5263788598581467   0.7064320186006009   0.8159905654094941
    0.5063852957718374   0.5042841051235550   0.4944096824564469
    0.5029480181828537   0.9997506106655530   1.0013202269469397
    0.0066701954101179   0.4996729652225465   0.9982779547418013
    0.0039188823325820   1.0020446585863489   0.5077344550539457
    0.1417387164964037   0.8813450874915466   0.6142153150376216
    0.1073086477019484   0.1384838088491110   0.3806248574405501
    0.8744909097228128   0.8716605601254093   0.3991474312148044
    0.8836029118886251   0.1151280776617005   0.6409009334269872
    0.8755803080709751   0.6152539696109413   0.1184672574929333
    0.8939860859164961   0.3666049005131767   0.8776082598002876
    0.1226367673712079   0.6275972722493506   0.8749038807948646
    0.1352982834083949   0.3820898021094868   0.1177387768200693
    0.6378930992977250   0.1038654229814707   0.8739908284695268
    0.6158642332894115   0.8754648963661937   0.1305608058764395
    0.3779042520354794   0.1346256581724802   0.1082849536913447
    0.3754888784439172   0.8843141908170358   0.8766120185324430
    0.6291775071612474   0.6196579074006230   0.3663359639758821
    0.6225736604074206   0.3765995303258357   0.6183891157219346
    0.3912191180791869   0.6353988108436954   0.6157873201025650
    0.3780095538153362   0.3954218493738796   0.3640088014208109
    0.7545339257285706   0.7421787215970602   0.7519548606935756
    0.7528603121983730   0.2494003938985867   0.2474263730371161
    0.2482242860202139   0.7592383845636848   0.2466653367883645
    0.2595068454437822   0.2530732609918159   0.7428720220297668
   -0.0008571813346613   0.9882780358188874   0.0228687332996135
    0.0038898009795190   0.5056496738054304   0.5003286412753981
    0.5016888618988080   0.0238229479112964   0.4821176373731084
    0.5057419130647041   0.4991841933855449   0.9656636498005555