Li24 P4 S20 Cl4                         
   1.00000000000000     
     9.6996181753912687    0.0000000000000000    0.0000000000000000
     0.0000000000000000    9.6996181753912687    0.0000000000000000
     0.0000000000000000    0.0000000000000000    9.6996181753912687
   Li   P    S    Cl
    24     4    20     4
Direct
  0.9795272161591844  0.2659675720509907  0.2338980218643829
  0.9839656381656806  0.7659163639514658  0.7339492299639220
  0.0110497346120478  0.1780104259481188  0.8105304909444988
  0.0110497346120478  0.6893351029708890  0.3218551679672618
  0.2161340554299225  0.1868302361887387  0.9946108441659970
  0.1718802281208037  0.8125302279550154  0.0383205658115304
  0.6986154405127826  0.2862276091872371  0.0225541060784123
  0.8183241913175243  0.8424399289043121  0.9616659487136315
  0.2704584994182193  0.9655905967566497  0.2841883104391116
  0.3338403147115160  0.0191645025930316  0.7261370977956861
  0.6797097137577522  0.9828806953865835  0.7001294258005116
  0.8207087108122194  0.0257823502730555  0.1946591129602364
  0.3338403147115160  0.7737284961197016  0.4807010913223633
  0.2704584994182193  0.2156772834762690  0.5342749971587452
  0.6797097137577665  0.7997361681148619  0.5169848985288042
  0.8207087108122194  0.3052064809551585  0.4740832436423252
  0.1718802281208037  0.4615450281038572  0.6873353659603724
  0.2161340554299225  0.5052547497493908  0.3130353577266349
  0.6986154405127826  0.4773114878369756  0.2136379847281507
  0.8183241913175243  0.5381996452017562  0.6574256650110970
  0.4560127188530759  0.3392098464430439  0.8180884518273702
  0.4560127188530759  0.6817771420880175  0.1606557474723439
  0.5480166732482300  0.1593978010929806  0.3404677928224000
  0.6863893854264055  0.5942844017818566  0.9055811921335170
  0.4999641617719198  0.4878836949085359  0.5102733498559366
  0.4999641617719198  0.9895922440594440  0.0119818990068448
  0.0027228073532554  0.5075670210403229  0.9922985728750577
  0.0008175664436996  0.9998618835531455  0.5000037103622351
  0.1414558599661033  0.8882139102893993  0.6116516836259813
  0.1145642640729308  0.1266516293965806  0.3732139645188142
  0.8744310821823476  0.8772536062821827  0.3832411538300686
  0.8744310821823476  0.1166244400853120  0.6226119876332050
  0.8756497517644117  0.6303360330750798  0.1108465839535658
  0.8756497517644117  0.3890190099618220  0.8695295608403080
  0.1249628261478727  0.6285655717656127  0.8713000221497751
  0.1335923290716615  0.3898680998844299  0.1099974940309578
  0.6022972100286401  0.1197565768892347  0.8781634509046856
  0.6340747629706940  0.8728961511202422  0.1277309168646299
  0.3925870342567143  0.1165597030732902  0.1439674455927190
  0.3794851482313737  0.8570801999054839  0.9040580610100620
  0.6022972100286401  0.6217021430107021  0.3801090170261531
  0.6340747629707011  0.3721346770507578  0.6269694427951527
  0.3794851482313737  0.5958075329053186  0.6427853940099039
  0.3925870342567143  0.3558981483226759  0.3833058908420977
  0.7523714005545901  0.7559524533116799  0.7439131406037078
  0.7523365748407278  0.2482446473116470  0.2516209466037407
  0.2407158404923021  0.7356655473876452  0.2593962073114510
  0.2407158404923021  0.2404693866039369  0.7642000465277425
  0.0017981663520237  0.0085909459718296  0.0066756746436861
  0.0017981663520166  0.4931899192716946  0.4912746479435511
  0.4915157532621400  0.9820395932140191  0.5178260007013828
  0.5251802321954204  0.4747907190179091  0.0250748748974857
 
  0.00000000E+00  0.00000000E+00  0.00000000E+00
  0.00000000E+00  0.00000000E+00  0.00000000E+00
  0.00000000E+00  0.00000000E+00  0.00000000E+00
  0.00000000E+00  0.00000000E+00  0.00000000E+00
  0.00000000E+00  0.00000000E+00  0.00000000E+00
  0.00000000E+00  0.00000000E+00  0.00000000E+00
  0.00000000E+00  0.00000000E+00  0.00000000E+00
  0.00000000E+00  0.00000000E+00  0.00000000E+00
  0.00000000E+00  0.00000000E+00  0.00000000E+00
  0.00000000E+00  0.00000000E+00  0.00000000E+00
  0.00000000E+00  0.00000000E+00  0.00000000E+00
  0.00000000E+00  0.00000000E+00  0.00000000E+00
  0.00000000E+00  0.00000000E+00  0.00000000E+00
  0.00000000E+00  0.00000000E+00  0.00000000E+00
  0.00000000E+00  0.00000000E+00  0.00000000E+00
  0.00000000E+00  0.00000000E+00  0.00000000E+00
  0.00000000E+00  0.00000000E+00  0.00000000E+00
  0.00000000E+00  0.00000000E+00  0.00000000E+00
  0.00000000E+00  0.00000000E+00  0.00000000E+00
  0.00000000E+00  0.00000000E+00  0.00000000E+00
  0.00000000E+00  0.00000000E+00  0.00000000E+00
  0.00000000E+00  0.00000000E+00  0.00000000E+00
  0.00000000E+00  0.00000000E+00  0.00000000E+00
  0.00000000E+00  0.00000000E+00  0.00000000E+00
  0.00000000E+00  0.00000000E+00  0.00000000E+00
  0.00000000E+00  0.00000000E+00  0.00000000E+00
  0.00000000E+00  0.00000000E+00  0.00000000E+00
  0.00000000E+00  0.00000000E+00  0.00000000E+00
  0.00000000E+00  0.00000000E+00  0.00000000E+00
  0.00000000E+00  0.00000000E+00  0.00000000E+00
  0.00000000E+00  0.00000000E+00  0.00000000E+00
  0.00000000E+00  0.00000000E+00  0.00000000E+00
  0.00000000E+00  0.00000000E+00  0.00000000E+00
  0.00000000E+00  0.00000000E+00  0.00000000E+00
  0.00000000E+00  0.00000000E+00  0.00000000E+00
  0.00000000E+00  0.00000000E+00  0.00000000E+00
  0.00000000E+00  0.00000000E+00  0.00000000E+00
  0.00000000E+00  0.00000000E+00  0.00000000E+00
  0.00000000E+00  0.00000000E+00  0.00000000E+00
  0.00000000E+00  0.00000000E+00  0.00000000E+00
  0.00000000E+00  0.00000000E+00  0.00000000E+00
  0.00000000E+00  0.00000000E+00  0.00000000E+00
  0.00000000E+00  0.00000000E+00  0.00000000E+00
  0.00000000E+00  0.00000000E+00  0.00000000E+00
  0.00000000E+00  0.00000000E+00  0.00000000E+00
  0.00000000E+00  0.00000000E+00  0.00000000E+00
  0.00000000E+00  0.00000000E+00  0.00000000E+00
  0.00000000E+00  0.00000000E+00  0.00000000E+00
  0.00000000E+00  0.00000000E+00  0.00000000E+00
  0.00000000E+00  0.00000000E+00  0.00000000E+00
  0.00000000E+00  0.00000000E+00  0.00000000E+00
  0.00000000E+00  0.00000000E+00  0.00000000E+00
