Li24 P4 S20 Cl4                         
   1.00000000000000     
     9.6996181753912687    0.0000000000000000    0.0000000000000000
     0.0000000000000000    9.6996181753912687    0.0000000000000000
     0.0000000000000000    0.0000000000000000    9.6996181753912687
   Li   P    S    Cl
    24     4    20     4
Direct
  0.9795160593131342  0.2659716279737125  0.2338939659416610
  0.9839734549758319  0.7659191885614973  0.7339464053538904
  0.0110527232559505  0.1780069606203440  0.8105335787907890
  0.0110527232559505  0.6893320151245987  0.3218586332950366
  0.2161412108749872  0.1868346687963509  0.9946101257553082
  0.1718857118498960  0.8125228493569878  0.0383088816211625
  0.6986160201987914  0.2862264422617926  0.0225590373973574
  0.8183321510552517  0.8424331722560723  0.9616697141259252
  0.2704158746383101  0.9655929866620525  0.2841527011097682
  0.3338523040260313  0.0191776806394444  0.7261212408012909
  0.6797105099880127  0.9828754159059159  0.7001336908589693
  0.8207042294927689  0.0257779585575193  0.1946615558210567
  0.3338523040260313  0.7737443531140968  0.4806879132759505
  0.2704158746383101  0.2157128928056125  0.5342726072533424
  0.6797105099880270  0.7997319030564043  0.5169901780094719
  0.8207042294927689  0.3052040380943382  0.4740876353578614
  0.1718857118498960  0.4615567122942252  0.6873427445583999
  0.2161412108749872  0.5052554681600796  0.3130309251190226
  0.6986160201987914  0.4773065565180303  0.2136391516535951
  0.8183321510552517  0.5381958797894626  0.6574324216593368
  0.4560207835858705  0.3391999852268341  0.8180921566786381
  0.4560207835858705  0.6817734372367497  0.1606656086885536
  0.5480103556878149  0.1593857881040108  0.3404798058113698
  0.6863821211774450  0.5942866976981733  0.9055788962172002
  0.4999635486273846  0.4878851847481585  0.5102727971830632
  0.4999635486273846  0.9895927967323175  0.0119804091672222
  0.0027186364610046  0.5075600639298585  0.9923055299855221
  0.0008149590018576  0.9998619420740695  0.5000036518413111
  0.1414621125858133  0.8882186839539443  0.6116469099614363
  0.1145523811951463  0.1266567254228406  0.3732088684925543
  0.8744305676850033  0.8772497248888129  0.3832429158652033
  0.8744305676850033  0.1166226780501773  0.6226158690265748
  0.8756489086501702  0.6303307426272866  0.1108506066100858
  0.8756489086501702  0.3890149873053019  0.8695348512881012
  0.1249609117827220  0.6285655744243570  0.8713000194910308
  0.1335904220657369  0.3898641836725574  0.1100014102428304
  0.6023031334822448  0.1197580657353541  0.8781669351967452
  0.6340739232247827  0.8728910335487896  0.1277252595791296
  0.3925887114054163  0.1165579425069794  0.1439699400645367
  0.3794820078613697  0.8570894962888715  0.9040457612484545
  0.6023031334822448  0.6216986587186426  0.3801075281800337
  0.6340739232247898  0.3721403343362581  0.6269745603666053
  0.3794820078613697  0.5958198326669262  0.6427760976265162
  0.3925887114054163  0.3558956538508582  0.3833076514084084
  0.7523814486678617  0.7559499715086133  0.7439156224067744
  0.7523285246345495  0.2482390778401964  0.2516265160751914
  0.2407167530814220  0.7356644437529596  0.2593892359455765
  0.2407167530814220  0.2404763579698113  0.7642011501624282
  0.0018000226994985  0.0085872898188768  0.0066802727588922
  0.0018000226994914  0.4931853211564885  0.4912783040965039
  0.4915321601464839  0.9820280819169085  0.5178375119984935
  0.5251903190387566  0.4747901035393696  0.0250754903760253
 
  0.00000000E+00  0.00000000E+00  0.00000000E+00
  0.00000000E+00  0.00000000E+00  0.00000000E+00
  0.00000000E+00  0.00000000E+00  0.00000000E+00
  0.00000000E+00  0.00000000E+00  0.00000000E+00
  0.00000000E+00  0.00000000E+00  0.00000000E+00
  0.00000000E+00  0.00000000E+00  0.00000000E+00
  0.00000000E+00  0.00000000E+00  0.00000000E+00
  0.00000000E+00  0.00000000E+00  0.00000000E+00
  0.00000000E+00  0.00000000E+00  0.00000000E+00
  0.00000000E+00  0.00000000E+00  0.00000000E+00
  0.00000000E+00  0.00000000E+00  0.00000000E+00
  0.00000000E+00  0.00000000E+00  0.00000000E+00
  0.00000000E+00  0.00000000E+00  0.00000000E+00
  0.00000000E+00  0.00000000E+00  0.00000000E+00
  0.00000000E+00  0.00000000E+00  0.00000000E+00
  0.00000000E+00  0.00000000E+00  0.00000000E+00
  0.00000000E+00  0.00000000E+00  0.00000000E+00
  0.00000000E+00  0.00000000E+00  0.00000000E+00
  0.00000000E+00  0.00000000E+00  0.00000000E+00
  0.00000000E+00  0.00000000E+00  0.00000000E+00
  0.00000000E+00  0.00000000E+00  0.00000000E+00
  0.00000000E+00  0.00000000E+00  0.00000000E+00
  0.00000000E+00  0.00000000E+00  0.00000000E+00
  0.00000000E+00  0.00000000E+00  0.00000000E+00
  0.00000000E+00  0.00000000E+00  0.00000000E+00
  0.00000000E+00  0.00000000E+00  0.00000000E+00
  0.00000000E+00  0.00000000E+00  0.00000000E+00
  0.00000000E+00  0.00000000E+00  0.00000000E+00
  0.00000000E+00  0.00000000E+00  0.00000000E+00
  0.00000000E+00  0.00000000E+00  0.00000000E+00
  0.00000000E+00  0.00000000E+00  0.00000000E+00
  0.00000000E+00  0.00000000E+00  0.00000000E+00
  0.00000000E+00  0.00000000E+00  0.00000000E+00
  0.00000000E+00  0.00000000E+00  0.00000000E+00
  0.00000000E+00  0.00000000E+00  0.00000000E+00
  0.00000000E+00  0.00000000E+00  0.00000000E+00
  0.00000000E+00  0.00000000E+00  0.00000000E+00
  0.00000000E+00  0.00000000E+00  0.00000000E+00
  0.00000000E+00  0.00000000E+00  0.00000000E+00
  0.00000000E+00  0.00000000E+00  0.00000000E+00
  0.00000000E+00  0.00000000E+00  0.00000000E+00
  0.00000000E+00  0.00000000E+00  0.00000000E+00
  0.00000000E+00  0.00000000E+00  0.00000000E+00
  0.00000000E+00  0.00000000E+00  0.00000000E+00
  0.00000000E+00  0.00000000E+00  0.00000000E+00
  0.00000000E+00  0.00000000E+00  0.00000000E+00
  0.00000000E+00  0.00000000E+00  0.00000000E+00
  0.00000000E+00  0.00000000E+00  0.00000000E+00
  0.00000000E+00  0.00000000E+00  0.00000000E+00
  0.00000000E+00  0.00000000E+00  0.00000000E+00
  0.00000000E+00  0.00000000E+00  0.00000000E+00
  0.00000000E+00  0.00000000E+00  0.00000000E+00
