Generated by IonExplorer 2.0
1.0
       10.2794980000        0.0000000000        0.0000000000
        0.0000000000       10.2794980000        0.0000000000
        0.0000000000        0.0000000000       10.2794980000
   Li    P    S   Cl
   31    4   20    4
Direct
    0.3865550000    0.7500000000    0.8634450000
    0.3403350000    0.2500000000    0.8634450000
    0.3403350000    0.7500000000    0.3634450000
    0.6134450000    0.2500000000    0.1365550000
    0.6134450000    0.7500000000    0.0903350000
    0.1134450000    0.2500000000    0.0903350000
    0.1134450000    0.7500000000    0.1365550000
    0.6134450000    0.0231100000    0.3634450000
    0.6134450000    0.9768900000    0.8634450000
    0.1134450000    0.0231100000    0.8634450000
    0.1134450000    0.9768900000    0.3634450000
    0.6134450000    0.2500000000    0.5903350000
    0.1134450000    0.7500000000    0.5903350000
    0.1134450000    0.2500000000    0.6365550000
    0.6134450000    0.5231100000    0.8634450000
    0.6134450000    0.4768900000    0.3634450000
    0.1134450000    0.5231100000    0.3634450000
    0.1134450000    0.4768900000    0.8634450000
    0.8865550000    0.2500000000    0.8634450000
    0.8865550000    0.7500000000    0.3634450000
    0.8403350000    0.2500000000    0.3634450000
    0.8403350000    0.7500000000    0.8634450000
    0.3784774600    0.2499743400    0.3634332400
    0.3690646800    0.1722164400    0.2857070800
    0.1691961100    0.2073149500    0.3207655000
    0.1245284300    0.2499997700    0.3634493100
    0.1691940100    0.2926828700    0.4061317100
    0.3691036600    0.3278674400    0.4412646800
    0.4495141000    0.5421581800    0.4361368000
    0.5356119800    0.6720795900    0.6189262000
    0.6138323143    0.7480470302    0.6291252229
    0.8634450000    0.5000000000    0.6134450000
    0.8634450000    0.0000000000    0.1134450000
    0.3634450000    0.5000000000    0.1134450000
    0.3634450000    0.0000000000    0.6134450000
    0.9789650000    0.6155200000    0.7289650000
    0.9789650000    0.3844800000    0.4979250000
    0.7479250000    0.6155200000    0.4979250000
    0.7479250000    0.3844800000    0.7289650000
    0.9789650000    0.1155200000    0.2289650000
    0.9789650000    0.8844800000    0.9979250000
    0.7479250000    0.1155200000    0.9979250000
    0.7479250000    0.8844800000    0.2289650000
    0.4789650000    0.6155200000    0.2289650000
    0.4789650000    0.3844800000    0.9979250000
    0.2479250000    0.6155200000    0.9979250000
    0.2479250000    0.3844800000    0.2289650000
    0.4789650000    0.1155200000    0.7289650000
    0.4789650000    0.8844800000    0.4979250000
    0.2479250000    0.1155200000    0.4979250000
    0.2479250000    0.8844800000    0.7289650000
    0.6134450000    0.2500000000    0.3634450000
    0.6134450000    0.7500000000    0.8634450000
    0.1134450000    0.2500000000    0.8634450000
    0.1134450000    0.7500000000    0.3634450000
    0.3634450000    0.0000000000    0.1134450000
    0.3634450000    0.5000000000    0.6134450000
    0.8634450000    0.0000000000    0.6134450000
    0.8634450000    0.5000000000    0.1134450000
