Generated by IonExplorer 2.0
1.0
       10.2794980000        0.0000000000        0.0000000000
        0.0000000000       10.2794980000        0.0000000000
        0.0000000000        0.0000000000       10.2794980000
   Li    P    S   Cl
   28    4   20    4
Direct
    0.2731100000    0.0000000000    0.0000000000
    0.2268900000    0.5000000000    0.0000000000
    0.2268900000    0.0000000000    0.5000000000
    0.5000000000    0.5000000000    0.2731100000
    0.5000000000    0.0000000000    0.2268900000
    0.0000000000    0.5000000000    0.2268900000
    0.0000000000    0.0000000000    0.2731100000
    0.5000000000    0.2731100000    0.5000000000
    0.5000000000    0.2268900000    0.0000000000
    0.0000000000    0.2731100000    0.0000000000
    0.0000000000    0.2268900000    0.5000000000
    0.5000000000    0.0000000000    0.7731100000
    0.5000000000    0.5000000000    0.7268900000
    0.0000000000    0.0000000000    0.7268900000
    0.0000000000    0.5000000000    0.7731100000
    0.5000000000    0.7731100000    0.0000000000
    0.5000000000    0.7268900000    0.5000000000
    0.0000000000    0.7731100000    0.5000000000
    0.0000000000    0.7268900000    0.0000000000
    0.7731100000    0.5000000000    0.0000000000
    0.7731100000    0.0000000000    0.5000000000
    0.7268900000    0.0000000000    0.0000000000
    0.2674242519    0.4965054418    0.5034945582
    0.2558549200    0.4223353900    0.4223353900
    0.4072708700    0.3428930000    0.3428930000
    0.4603163100    0.2577141900    0.2577141900
    0.5720466300    0.3548760000    0.3548760000
    0.7325757481    0.4965054418    0.4965054418
    0.7500000000    0.7500000000    0.7500000000
    0.7500000000    0.2500000000    0.2500000000
    0.2500000000    0.7500000000    0.2500000000
    0.2500000000    0.2500000000    0.7500000000
    0.8655200000    0.8655200000    0.8655200000
    0.8655200000    0.6344800000    0.6344800000
    0.6344800000    0.8655200000    0.6344800000
    0.6344800000    0.6344800000    0.8655200000
    0.8655200000    0.3655200000    0.3655200000
    0.8655200000    0.1344800000    0.1344800000
    0.6344800000    0.3655200000    0.1344800000
    0.6344800000    0.1344800000    0.3655200000
    0.3655200000    0.8655200000    0.3655200000
    0.3655200000    0.6344800000    0.1344800000
    0.1344800000    0.8655200000    0.1344800000
    0.1344800000    0.6344800000    0.3655200000
    0.3655200000    0.3655200000    0.8655200000
    0.3655200000    0.1344800000    0.6344800000
    0.1344800000    0.3655200000    0.6344800000
    0.1344800000    0.1344800000    0.8655200000
    0.5000000000    0.5000000000    0.5000000000
    0.5000000000    0.0000000000    0.0000000000
    0.0000000000    0.5000000000    0.0000000000
    0.0000000000    0.0000000000    0.5000000000
    0.2500000000    0.2500000000    0.2500000000
    0.2500000000    0.7500000000    0.7500000000
    0.7500000000    0.2500000000    0.7500000000
    0.7500000000    0.7500000000    0.2500000000
